LAMMPS (2 Aug 2023 - Update 1)
OMP_NUM_THREADS environment is not set. Defaulting to 1 thread. (src/comm.cpp:98)
  using 1 OpenMP thread(s) per MPI task
# 2D LJ triangular lattice — TR3_interstitial
units           lj
dimension       2
boundary        p p p
atom_style      atomic
lattice         hex 0.9
Lattice spacing in x,y,z = 1.1326962 1.9618873 1.1326962
region          box block 0 26 0 15 -0.25 0.25
create_box      1 box
Created orthogonal box = (0 0 -0.28317404) to (29.4501 29.42831 0.28317404)
  1 by 1 by 1 MPI processor grid
create_atoms    1 box
Created 780 atoms
  using lattice units in orthogonal box = (0 0 -0.28317404) to (29.4501 29.42831 0.28317404)
  create_atoms CPU = 0.000 seconds
mass            1 1.0
pair_style      lj/cut 2.5
pair_coeff      1 1 1.0 1.0 2.5

variable cx equal 0.5*(xlo+xhi)+0.5
variable cy equal 0.5*(ylo+yhi)+0.30
create_atoms 1 single ${cx} ${cy} 0.0 units box
create_atoms 1 single 15.2250501220084 ${cy} 0.0 units box
create_atoms 1 single 15.2250501220084 15.0141547819136 0.0 units box
Created 1 atoms
  using box units in orthogonal box = (0 0 -0.28317404) to (29.4501 29.42831 0.28317404)
  create_atoms CPU = 0.000 seconds

# relax: atoms, then box+atoms, then atoms (cg throughout; 2D)
fix             enf2d all enforce2d
min_style       cg
minimize        1e-12 1e-12 20000 200000
Generated 0 of 0 mixed pair_coeff terms from geometric mixing rule
Neighbor list info ...
  update: every = 1 steps, delay = 0 steps, check = yes
  max neighbors/atom: 2000, page size: 100000
  master list distance cutoff = 2.8
  ghost atom cutoff = 2.8
  binsize = 1.4, bins = 22 22 1
  1 neighbor lists, perpetual/occasional/extra = 1 0 0
  (1) pair lj/cut, perpetual
      attributes: half, newton on
      pair build: half/bin/atomonly/newton
      stencil: half/bin/2d
      bin: standard
Per MPI rank memory allocation (min/avg/max) = 4.182 | 4.182 | 4.182 Mbytes
   Step          Temp          E_pair         E_mol          TotEng         Press     
         0   0              7227.0103      0              7227.0103      39108.574    
        46   0             -3.2744384      0             -3.2744384     -1.4341261    
Loop time of 0.0177806 on 1 procs for 46 steps with 781 atoms

98.9% CPU use with 1 MPI tasks x 1 OpenMP threads

Minimization stats:
  Stopping criterion = linesearch alpha is zero
  Energy initial, next-to-last, final = 
      7227.01034869596  -3.27443836520678  -3.27443836520678
  Force two-norm initial, final = 3.1202784e+08 1.9311332
  Force max component initial, final = 2.154315e+08 0.8575455
  Final line search alpha, max atom move = 1.3304188e-06 1.1408946e-06
  Iterations, force evaluations = 46 129

MPI task timing breakdown:
Section |  min time  |  avg time  |  max time  |%varavg| %total
---------------------------------------------------------------
Pair    | 0.014466   | 0.014466   | 0.014466   |   0.0 | 81.36
Neigh   | 0.0014507  | 0.0014507  | 0.0014507  |   0.0 |  8.16
Comm    | 0.00023095 | 0.00023095 | 0.00023095 |   0.0 |  1.30
Output  | 0          | 0          | 0          |   0.0 |  0.00
Modify  | 0.00012252 | 0.00012252 | 0.00012252 |   0.0 |  0.69
Other   |            | 0.001511   |            |       |  8.50

Nlocal:            781 ave         781 max         781 min
Histogram: 1 0 0 0 0 0 0 0 0 0
Nghost:            288 ave         288 max         288 min
Histogram: 1 0 0 0 0 0 0 0 0 0
Neighs:           7048 ave        7048 max        7048 min
Histogram: 1 0 0 0 0 0 0 0 0 0

Total # of neighbors = 7048
Ave neighs/atom = 9.0243278
Neighbor list builds = 16
Dangerous builds = 0
fix             rbox all box/relax x 0.0 y 0.0
minimize        1e-12 1e-12 20000 200000
Generated 0 of 0 mixed pair_coeff terms from geometric mixing rule
WARNING: Energy due to 3 extra global DOFs will be included in minimizer energies
 (src/min.cpp:225)
Per MPI rank memory allocation (min/avg/max) = 4.182 | 4.182 | 4.182 Mbytes
   Step          Temp          E_pair         E_mol          TotEng         Press          Volume    
        46   0             -3.2744384      0             -3.2744384     -1.4341261      866.66667    
       238   0             -3.3002358      0             -3.3002358      3.8437598e-05  840.38977    
Loop time of 0.0330769 on 1 procs for 192 steps with 781 atoms

99.4% CPU use with 1 MPI tasks x 1 OpenMP threads

Minimization stats:
  Stopping criterion = linesearch alpha is zero
  Energy initial, next-to-last, final = 
     -3.27443836520678  -3.30023584097867  -3.30023584097867
  Force two-norm initial, final = 1757.7834 4.7995847
  Force max component initial, final = 1251.6225 3.3481465
  Final line search alpha, max atom move = 2.3333806e-07 7.8125e-07
  Iterations, force evaluations = 192 223

MPI task timing breakdown:
Section |  min time  |  avg time  |  max time  |%varavg| %total
---------------------------------------------------------------
Pair    | 0.02548    | 0.02548    | 0.02548    |   0.0 | 77.03
Neigh   | 0.00035994 | 0.00035994 | 0.00035994 |   0.0 |  1.09
Comm    | 0.00027159 | 0.00027159 | 0.00027159 |   0.0 |  0.82
Output  | 0          | 0          | 0          |   0.0 |  0.00
Modify  | 0.00021221 | 0.00021221 | 0.00021221 |   0.0 |  0.64
Other   |            | 0.006753   |            |       | 20.42

Nlocal:            781 ave         781 max         781 min
Histogram: 1 0 0 0 0 0 0 0 0 0
Nghost:            322 ave         322 max         322 min
Histogram: 1 0 0 0 0 0 0 0 0 0
Neighs:           7055 ave        7055 max        7055 min
Histogram: 1 0 0 0 0 0 0 0 0 0

Total # of neighbors = 7055
Ave neighs/atom = 9.0332907
Neighbor list builds = 4
Dangerous builds = 0
unfix           rbox
minimize        1e-12 1e-12 20000 200000
Generated 0 of 0 mixed pair_coeff terms from geometric mixing rule
Per MPI rank memory allocation (min/avg/max) = 4.182 | 4.182 | 4.182 Mbytes
   Step          Temp          E_pair         E_mol          TotEng         Press     
       238   0             -3.3002358      0             -3.3002358      3.8437598e-05
       241   0             -3.300236       0             -3.300236       3.7713381e-05
Loop time of 0.0100627 on 1 procs for 3 steps with 781 atoms

99.4% CPU use with 1 MPI tasks x 1 OpenMP threads

Minimization stats:
  Stopping criterion = linesearch alpha is zero
  Energy initial, next-to-last, final = 
     -3.30023584097868  -3.30023595969473  -3.30023595969473
  Force two-norm initial, final = 1.0322778 1.0221575
  Force max component initial, final = 0.4196849 0.41134603
  Final line search alpha, max atom move = 7.4189554e-06 3.0517578e-06
  Iterations, force evaluations = 3 83

MPI task timing breakdown:
Section |  min time  |  avg time  |  max time  |%varavg| %total
---------------------------------------------------------------
Pair    | 0.0093599  | 0.0093599  | 0.0093599  |   0.0 | 93.02
Neigh   | 0          | 0          | 0          |   0.0 |  0.00
Comm    | 9.878e-05  | 9.878e-05  | 9.878e-05  |   0.0 |  0.98
Output  | 0          | 0          | 0          |   0.0 |  0.00
Modify  | 7.8358e-05 | 7.8358e-05 | 7.8358e-05 |   0.0 |  0.78
Other   |            | 0.0005257  |            |       |  5.22

Nlocal:            781 ave         781 max         781 min
Histogram: 1 0 0 0 0 0 0 0 0 0
Nghost:            322 ave         322 max         322 min
Histogram: 1 0 0 0 0 0 0 0 0 0
Neighs:           7055 ave        7055 max        7055 min
Histogram: 1 0 0 0 0 0 0 0 0 0

Total # of neighbors = 7055
Ave neighs/atom = 9.0332907
Neighbor list builds = 0
Dangerous builds = 0
write_dump      all custom relaxed_TR3_interstitial.dump id type x y z modify sort id
print           "DONE TR3_interstitial natoms $(count(all))"
DONE TR3_interstitial natoms 781
Total wall time: 0:00:00
