ITEM: TIMESTEP
659
ITEM: NUMBER OF ATOMS
776
ITEM: BOX BOUNDS pp pp pp
2.5396216025485480e-01 2.9196138083761902e+01
2.5319083276438803e-01 2.9175118731062494e+01
-2.8317404080785380e-01 2.8317404080785380e-01
ITEM: ATOMS id type x y z
1 1 0.253962 0.253191 0
2 1 0.810539 1.21728 0
3 1 1.36711 0.253191 0
4 1 1.92369 1.21728 0
5 1 2.48027 0.253191 0
6 1 3.03684 1.21728 0
7 1 3.59342 0.253191 0
8 1 4.15 1.21728 0
9 1 4.70657 0.253191 0
10 1 5.26315 1.21728 0
11 1 5.81972 0.253191 0
12 1 6.3763 1.21728 0
13 1 6.93287 0.253191 0
14 1 7.48945 1.21727 0
15 1 8.04603 0.253191 0
16 1 8.60261 1.21726 0
17 1 9.15918 0.253191 0
18 1 9.71577 1.21726 0
19 1 10.2723 0.253191 0
20 1 10.8289 1.21725 0
21 1 11.3855 0.253191 0
22 1 11.9421 1.21724 0
23 1 12.4987 0.253191 0
24 1 13.0553 1.21723 0
25 1 13.6119 0.253191 0
26 1 14.1685 1.21723 0
27 1 14.7251 0.253191 0
28 1 15.2816 1.21723 0
29 1 15.8382 0.253191 0
30 1 16.3948 1.21723 0
31 1 16.9514 0.253191 0
32 1 17.508 1.21724 0
33 1 18.0646 0.253191 0
34 1 18.6212 1.21725 0
35 1 19.1778 0.253191 0
36 1 19.7343 1.21726 0
37 1 20.2909 0.253191 0
38 1 20.8475 1.21726 0
39 1 21.4041 0.253191 0
40 1 21.9606 1.21727 0
41 1 22.5172 0.253191 0
42 1 23.0738 1.21728 0
43 1 23.6304 0.253191 0
44 1 24.187 1.21728 0
45 1 24.7435 0.253191 0
46 1 25.3001 1.21728 0
47 1 25.8567 0.253191 0
48 1 26.4133 1.21728 0
49 1 26.9698 0.253191 0
50 1 27.5264 1.21728 0
51 1 28.083 0.253191 0
52 1 28.6396 1.21728 0
53 1 0.253962 2.18138 0
54 1 0.810541 3.14547 0
55 1 1.36712 2.18138 0
56 1 1.9237 3.14547 0
57 1 2.48027 2.18138 0
58 1 3.03686 3.14547 0
59 1 3.59343 2.18137 0
60 1 4.15001 3.14546 0
61 1 4.70658 2.18137 0
62 1 5.26317 3.14546 0
63 1 5.81973 2.18136 0
64 1 6.37632 3.14545 0
65 1 6.93288 2.18136 0
66 1 7.48947 3.14543 0
67 1 8.04603 2.18134 0
68 1 8.60262 3.14541 0
69 1 9.15919 2.18133 0
70 1 9.71578 3.14539 0
71 1 10.2724 2.18131 0
72 1 10.8289 3.14536 0
73 1 11.3855 2.18129 0
74 1 11.9421 3.14533 0
75 1 12.4987 2.18128 0
76 1 13.0553 3.14531 0
77 1 13.6119 2.18127 0
78 1 14.1685 3.1453 0
79 1 14.7251 2.18126 0
80 1 15.2816 3.1453 0
81 1 15.8382 2.18127 0
82 1 16.3948 3.14531 0
83 1 16.9514 2.18128 0
84 1 17.508 3.14533 0
85 1 18.0646 2.18129 0
86 1 18.6212 3.14536 0
87 1 19.1777 2.18131 0
88 1 19.7343 3.14539 0
89 1 20.2909 2.18133 0
90 1 20.8475 3.14541 0
91 1 21.4041 2.18134 0
92 1 21.9606 3.14543 0
93 1 22.5172 2.18136 0
94 1 23.0738 3.14545 0
95 1 23.6304 2.18136 0
96 1 24.1869 3.14546 0
97 1 24.7435 2.18137 0
98 1 25.3001 3.14546 0
99 1 25.8567 2.18137 0
100 1 26.4132 3.14547 0
101 1 26.9698 2.18138 0
102 1 27.5264 3.14547 0
103 1 28.083 2.18138 0
104 1 28.6396 3.14547 0
105 1 0.253962 4.10956 0
106 1 0.810547 5.07364 0
107 1 1.36713 4.10956 0
108 1 1.92372 5.07364 0
109 1 2.48029 4.10956 0
110 1 3.03688 5.07364 0
111 1 3.59345 4.10955 0
112 1 4.15005 5.07364 0
113 1 4.70661 4.10955 0
114 1 5.26321 5.07363 0
115 1 5.81976 4.10954 0
116 1 6.37637 5.07362 0
117 1 6.93291 4.10953 0
118 1 7.48952 5.0736 0
119 1 8.04606 4.1095 0
120 1 8.60267 5.07357 0
121 1 9.15921 4.10948 0
122 1 9.71581 5.07353 0
123 1 10.2724 4.10944 0
124 1 10.829 5.07348 0
125 1 11.3855 4.1094 0
126 1 11.9421 5.07343 0
127 1 12.4987 4.10936 0
128 1 13.0553 5.07338 0
129 1 13.6119 4.10934 0
130 1 14.1685 5.07336 0
131 1 14.7251 4.10933 0
132 1 15.2816 5.07336 0
133 1 15.8382 4.10934 0
134 1 16.3948 5.07338 0
135 1 16.9514 4.10936 0
136 1 17.508 5.07343 0
137 1 18.0646 4.1094 0
138 1 18.6211 5.07348 0
139 1 19.1777 4.10944 0
140 1 19.7343 5.07353 0
141 1 20.2909 4.10948 0
142 1 20.8474 5.07357 0
143 1 21.404 4.1095 0
144 1 21.9606 5.0736 0
145 1 22.5172 4.10953 0
146 1 23.0737 5.07362 0
147 1 23.6303 4.10954 0
148 1 24.1869 5.07363 0
149 1 24.7435 4.10955 0
150 1 25.3001 5.07364 0
151 1 25.8567 4.10955 0
152 1 26.4132 5.07364 0
153 1 26.9698 4.10956 0
154 1 27.5264 5.07364 0
155 1 28.083 4.10956 0
156 1 28.6396 5.07364 0
157 1 0.253962 6.03772 0
158 1 0.810556 7.0018 0
159 1 1.36714 6.03772 0
160 1 1.92374 7.0018 0
161 1 2.48032 6.03772 0
162 1 3.03693 7.0018 0
163 1 3.59349 6.03772 0
164 1 4.15011 7.0018 0
165 1 4.70666 6.03772 0
166 1 5.26328 7.0018 0
167 1 5.81982 6.03772 0
168 1 6.37645 7.0018 0
169 1 6.93298 6.0377 0
170 1 7.48961 7.00178 0
171 1 8.04613 6.03768 0
172 1 8.60276 7.00176 0
173 1 9.15927 6.03764 0
174 1 9.71589 7.00171 0
175 1 10.2724 6.03759 0
176 1 10.829 7.00164 0
177 1 11.3856 6.03752 0
178 1 11.9421 7.00154 0
179 1 12.4987 6.03745 0
180 1 13.0553 7.00145 0
181 1 13.6119 6.03739 0
182 1 14.1685 7.00139 0
183 1 14.7251 6.03737 0
184 1 15.2816 7.00139 0
185 1 15.8382 6.03739 0
186 1 16.3948 7.00145 0
187 1 16.9514 6.03745 0
188 1 17.508 7.00154 0
189 1 18.0645 6.03752 0
190 1 18.6211 7.00164 0
191 1 19.1777 6.03759 0
192 1 19.7342 7.00171 0
193 1 20.2908 6.03764 0
194 1 20.8473 7.00176 0
195 1 21.404 6.03768 0
196 1 21.9605 7.00178 0
197 1 22.5171 6.0377 0
198 1 23.0737 7.0018 0
199 1 23.6303 6.03772 0
200 1 24.1868 7.0018 0
201 1 24.7434 6.03772 0
202 1 25.3 7.0018 0
203 1 25.8566 6.03772 0
204 1 26.4132 7.0018 0
205 1 26.9698 6.03772 0
206 1 27.5264 7.0018 0
207 1 28.083 6.03772 0
208 1 28.6395 7.0018 0
209 1 0.253962 7.96587 0
210 1 0.810567 8.92993 0
211 1 1.36716 7.96587 0
212 1 1.92378 8.92994 0
213 1 2.48036 7.96587 0
214 1 3.03698 8.92994 0
215 1 3.59355 7.96588 0
216 1 4.15019 8.92995 0
217 1 4.70674 7.96588 0
218 1 5.26339 8.92996 0
219 1 5.81992 7.96588 0
220 1 6.37658 8.92996 0
221 1 6.9331 7.96588 0
222 1 7.48977 8.92996 0
223 1 8.04626 7.96587 0
224 1 8.60293 8.92995 0
225 1 9.1594 7.96584 0
226 1 9.71607 8.92992 0
227 1 10.2725 7.96578 0
228 1 10.8292 8.92986 0
229 1 11.3856 7.96568 0
230 1 11.9422 8.92972 0
231 1 12.4987 7.96554 0
232 1 13.0553 8.9295 0
233 1 13.6119 7.96542 0
234 1 14.1685 8.92935 0
235 1 14.7251 7.96537 0
236 1 15.2816 8.92935 0
237 1 15.8382 7.96542 0
238 1 16.3948 8.9295 0
239 1 16.9514 7.96554 0
240 1 17.5079 8.92972 0
241 1 18.0645 7.96568 0
242 1 18.6209 8.92986 0
243 1 19.1776 7.96578 0
244 1 19.734 8.92992 0
245 1 20.2907 7.96584 0
246 1 20.8472 8.92995 0
247 1 21.4038 7.96587 0
248 1 21.9603 8.92996 0
249 1 22.517 7.96588 0
250 1 23.0735 8.92996 0
251 1 23.6302 7.96588 0
252 1 24.1867 8.92996 0
253 1 24.7434 7.96588 0
254 1 25.2999 8.92995 0
255 1 25.8565 7.96588 0
256 1 26.4131 8.92994 0
257 1 26.9697 7.96587 0
258 1 27.5263 8.92994 0
259 1 28.0829 7.96587 0
260 1 28.6395 8.92993 0
261 1 0.253962 9.89399 0
262 1 0.81058 10.858 0
263 1 1.36718 9.89399 0
264 1 1.92382 10.858 0
265 1 2.48041 9.89399 0
266 1 3.03705 10.858 0
267 1 3.59363 9.894 0
268 1 4.15029 10.8581 0
269 1 4.70685 9.89401 0
270 1 5.26353 10.8581 0
271 1 5.82006 9.89403 0
272 1 6.37676 10.8581 0
273 1 6.93327 9.89404 0
274 1 7.48999 10.8581 0
275 1 8.04647 9.89405 0
276 1 8.60321 10.8581 0
277 1 9.15964 9.89404 0
278 1 9.71641 10.8581 0
279 1 10.2728 9.89402 0
280 1 10.8296 10.8581 0
281 1 11.3859 9.89396 0
282 1 11.9427 10.8581 0
283 1 12.4989 9.89376 0
284 1 13.0556 10.8578 0
285 1 13.6119 9.89338 0
286 1 14.1684 10.8571 0
287 1 14.7251 9.89324 0
288 1 15.2817 10.8571 0
289 1 15.8382 9.89338 0
290 1 16.3945 10.8578 0
291 1 16.9512 9.89376 0
292 1 17.5074 10.8581 0
293 1 18.0642 9.89396 0
294 1 18.6205 10.8581 0
295 1 19.1773 9.89402 0
296 1 19.7337 10.8581 0
297 1 20.2905 9.89404 0
298 1 20.8469 10.8581 0
299 1 21.4036 9.89405 0
300 1 21.9601 10.8581 0
301 1 22.5168 9.89404 0
302 1 23.0733 10.8581 0
303 1 23.63 9.89403 0
304 1 24.1866 10.8581 0
305 1 24.7433 9.89401 0
306 1 25.2998 10.8581 0
307 1 25.8565 9.894 0
308 1 26.413 10.858 0
309 1 26.9697 9.89399 0
310 1 27.5263 10.858 0
311 1 28.0829 9.89399 0
312 1 28.6395 10.858 0
313 1 0.253962 11.8221 0
314 1 0.81059 12.7861 0
315 1 1.36721 11.8221 0
316 1 1.92385 12.7861 0
317 1 2.48046 11.8221 0
318 1 3.03711 12.7861 0
319 1 3.59371 11.8221 0
320 1 4.15038 12.7861 0
321 1 4.70696 11.8221 0
322 1 5.26365 12.7861 0
323 1 5.82022 11.8221 0
324 1 6.37694 12.7862 0
325 1 6.93349 11.8221 0
326 1 7.49024 12.7862 0
327 1 8.04675 11.8222 0
328 1 8.60356 12.7862 0
329 1 9.16002 11.8222 0
330 1 9.7169 12.7862 0
331 1 10.2733 11.8222 0
332 1 10.8303 12.7863 0
333 1 11.3865 11.8222 0
334 1 11.9436 12.7863 0
335 1 12.4996 11.8224 0
336 1 13.057 12.7871 0
337 1 13.6123 11.8218 0
338 1 14.1703 12.7867 0
339 1 14.7251 11.8201 0
340 1 15.2798 12.7867 0
341 1 15.8378 11.8218 0
342 1 16.3931 12.7871 0
343 1 16.9505 11.8224 0
344 1 17.5065 12.7863 0
345 1 18.0636 11.8222 0
346 1 18.6198 12.7863 0
347 1 19.1768 11.8222 0
348 1 19.7332 12.7862 0
349 1 20.2901 11.8222 0
350 1 20.8465 12.7862 0
351 1 21.4033 11.8222 0
352 1 21.9599 12.7862 0
353 1 22.5166 11.8221 0
354 1 23.0732 12.7862 0
355 1 23.6299 11.8221 0
356 1 24.1864 12.7861 0
357 1 24.7431 11.8221 0
358 1 25.2997 12.7861 0
359 1 25.8564 11.8221 0
360 1 26.413 12.7861 0
361 1 26.9696 11.8221 0
362 1 27.5263 12.7861 0
363 1 28.0829 11.8221 0
364 1 28.6395 12.7861 0
365 1 0.253962 13.7501 0
366 1 0.810595 14.7142 0
367 1 1.36722 13.7501 0
368 1 1.92386 14.7142 0
369 1 2.48049 13.7501 0
370 1 3.03713 14.7142 0
371 1 3.59376 13.7501 0
372 1 4.15041 14.7142 0
373 1 4.70704 13.7501 0
374 1 5.2637 14.7142 0
375 1 5.82034 13.7502 0
376 1 6.37701 14.7142 0
377 1 6.93366 13.7502 0
378 1 7.49035 14.7142 0
379 1 8.047 13.7502 0
380 1 8.60373 14.7142 0
381 1 9.1604 13.7502 0
382 1 9.71715 14.7142 0
383 1 10.2739 13.7502 0
384 1 10.8306 14.7142 0
385 1 11.3875 13.7502 0
386 1 11.9441 14.7142 0
387 1 12.5015 13.7499 0
388 1 13.0581 14.7142 0
389 1 13.6213 13.7541 0
390 1 28.6396 28.211 0
391 1 28.083 27.2469 0
392 1 27.5264 28.211 0
393 1 15.8288 13.7541 0
394 1 16.392 14.7142 0
395 1 16.9486 13.7499 0
396 1 17.506 14.7142 0
397 1 18.0626 13.7502 0
398 1 18.6195 14.7142 0
399 1 19.1762 13.7502 0
400 1 19.7329 14.7142 0
401 1 20.2897 13.7502 0
402 1 20.8464 14.7142 0
403 1 21.4031 13.7502 0
404 1 21.9597 14.7142 0
405 1 22.5164 13.7502 0
406 1 23.0731 14.7142 0
407 1 23.6298 13.7502 0
408 1 24.1864 14.7142 0
409 1 24.7431 13.7501 0
410 1 25.2997 14.7142 0
411 1 25.8563 13.7501 0
412 1 26.413 14.7142 0
413 1 26.9696 13.7501 0
414 1 27.5262 14.7142 0
415 1 28.0829 13.7501 0
416 1 28.6395 14.7142 0
417 1 0.253962 15.6782 0
418 1 0.81059 16.6422 0
419 1 1.36722 15.6782 0
420 1 1.92385 16.6422 0
421 1 2.48049 15.6782 0
422 1 3.03711 16.6422 0
423 1 3.59376 15.6782 0
424 1 4.15038 16.6422 0
425 1 4.70704 15.6782 0
426 1 5.26365 16.6422 0
427 1 5.82034 15.6782 0
428 1 6.37694 16.6422 0
429 1 6.93366 15.6781 0
430 1 7.49024 16.6421 0
431 1 8.047 15.6781 0
432 1 8.60356 16.6421 0
433 1 9.1604 15.6781 0
434 1 9.7169 16.6421 0
435 1 10.2739 15.6781 0
436 1 10.8303 16.642 0
437 1 11.3875 15.6781 0
438 1 11.9436 16.642 0
439 1 12.5015 15.6784 0
440 1 13.057 16.6412 0
441 1 13.6213 15.6742 0
442 1 14.1703 16.6417 0
443 1 26.9698 27.2469 0
444 1 15.2798 16.6417 0
445 1 15.8288 15.6742 0
446 1 16.3931 16.6412 0
447 1 16.9486 15.6784 0
448 1 17.5065 16.642 0
449 1 18.0626 15.6781 0
450 1 18.6198 16.642 0
451 1 19.1762 15.6781 0
452 1 19.7332 16.6421 0
453 1 20.2897 15.6781 0
454 1 20.8465 16.6421 0
455 1 21.4031 15.6781 0
456 1 21.9599 16.6421 0
457 1 22.5164 15.6781 0
458 1 23.0732 16.6422 0
459 1 23.6298 15.6782 0
460 1 24.1864 16.6422 0
461 1 24.7431 15.6782 0
462 1 25.2997 16.6422 0
463 1 25.8563 15.6782 0
464 1 26.413 16.6422 0
465 1 26.9696 15.6782 0
466 1 27.5263 16.6422 0
467 1 28.0829 15.6782 0
468 1 28.6395 16.6422 0
469 1 0.253962 17.6062 0
470 1 0.81058 18.5703 0
471 1 1.36721 17.6062 0
472 1 1.92382 18.5703 0
473 1 2.48046 17.6062 0
474 1 3.03705 18.5703 0
475 1 3.59371 17.6062 0
476 1 4.15029 18.5703 0
477 1 4.70696 17.6062 0
478 1 5.26353 18.5702 0
479 1 5.82022 17.6062 0
480 1 6.37676 18.5702 0
481 1 6.93349 17.6062 0
482 1 7.48999 18.5702 0
483 1 8.04675 17.6061 0
484 1 8.60321 18.5702 0
485 1 9.16002 17.6061 0
486 1 9.71641 18.5702 0
487 1 10.2733 17.6061 0
488 1 10.8296 18.5702 0
489 1 11.3865 17.6061 0
490 1 11.9427 18.5702 0
491 1 12.4996 17.6059 0
492 1 13.0556 18.5705 0
493 1 13.6123 17.6065 0
494 1 14.1684 18.5712 0
495 1 14.7251 17.6082 0
496 1 15.2817 18.5712 0
497 1 15.8378 17.6065 0
498 1 16.3945 18.5705 0
499 1 16.9505 17.6059 0
500 1 17.5074 18.5702 0
501 1 18.0636 17.6061 0
502 1 18.6205 18.5702 0
503 1 19.1768 17.6061 0
504 1 19.7337 18.5702 0
505 1 20.2901 17.6061 0
506 1 20.8469 18.5702 0
507 1 21.4033 17.6061 0
508 1 21.9601 18.5702 0
509 1 22.5166 17.6062 0
510 1 23.0733 18.5702 0
511 1 23.6299 17.6062 0
512 1 24.1866 18.5702 0
513 1 24.7431 17.6062 0
514 1 25.2998 18.5703 0
515 1 25.8564 17.6062 0
516 1 26.413 18.5703 0
517 1 26.9696 17.6062 0
518 1 27.5263 18.5703 0
519 1 28.0829 17.6062 0
520 1 28.6395 18.5703 0
521 1 0.253962 19.5343 0
522 1 0.810567 20.4984 0
523 1 1.36718 19.5343 0
524 1 1.92378 20.4984 0
525 1 2.48041 19.5343 0
526 1 3.03698 20.4984 0
527 1 3.59363 19.5343 0
528 1 4.15019 20.4984 0
529 1 4.70685 19.5343 0
530 1 5.26339 20.4984 0
531 1 5.82006 19.5343 0
532 1 6.37658 20.4983 0
533 1 6.93327 19.5343 0
534 1 7.48977 20.4983 0
535 1 8.04647 19.5343 0
536 1 8.60293 20.4984 0
537 1 9.15964 19.5343 0
538 1 9.71607 20.4984 0
539 1 10.2728 19.5343 0
540 1 10.8292 20.4985 0
541 1 11.3859 19.5343 0
542 1 11.9422 20.4986 0
543 1 12.4989 19.5346 0
544 1 13.0553 20.4988 0
545 1 13.6119 19.5349 0
546 1 14.1685 20.499 0
547 1 14.7251 19.5351 0
548 1 15.2816 20.499 0
549 1 15.8382 19.5349 0
550 1 16.3948 20.4988 0
551 1 16.9512 19.5346 0
552 1 17.5079 20.4986 0
553 1 18.0642 19.5343 0
554 1 18.6209 20.4985 0
555 1 19.1773 19.5343 0
556 1 19.734 20.4984 0
557 1 20.2905 19.5343 0
558 1 20.8472 20.4984 0
559 1 21.4036 19.5343 0
560 1 21.9603 20.4983 0
561 1 22.5168 19.5343 0
562 1 23.0735 20.4983 0
563 1 23.63 19.5343 0
564 1 24.1867 20.4984 0
565 1 24.7433 19.5343 0
566 1 25.2999 20.4984 0
567 1 25.8565 19.5343 0
568 1 26.4131 20.4984 0
569 1 26.9697 19.5343 0
570 1 27.5263 20.4984 0
571 1 28.0829 19.5343 0
572 1 28.6395 20.4984 0
573 1 0.253962 21.4624 0
574 1 0.810556 22.4265 0
575 1 1.36716 21.4624 0
576 1 1.92374 22.4265 0
577 1 2.48036 21.4624 0
578 1 3.03693 22.4265 0
579 1 3.59355 21.4624 0
580 1 4.15011 22.4265 0
581 1 4.70674 21.4624 0
582 1 5.26328 22.4265 0
583 1 5.81992 21.4624 0
584 1 6.37645 22.4265 0
585 1 6.9331 21.4624 0
586 1 7.48961 22.4265 0
587 1 8.04626 21.4624 0
588 1 8.60276 22.4266 0
589 1 9.1594 21.4625 0
590 1 9.71589 22.4266 0
591 1 10.2725 21.4625 0
592 1 10.829 22.4267 0
593 1 11.3856 21.4626 0
594 1 11.9421 22.4268 0
595 1 12.4987 21.4628 0
596 1 13.0553 22.4269 0
597 1 13.6119 21.4629 0
598 1 14.1685 22.4269 0
599 1 14.7251 21.4629 0
600 1 15.2816 22.4269 0
601 1 15.8382 21.4629 0
602 1 16.3948 22.4269 0
603 1 16.9514 21.4628 0
604 1 17.508 22.4268 0
605 1 18.0645 21.4626 0
606 1 18.6211 22.4267 0
607 1 19.1776 21.4625 0
608 1 19.7342 22.4266 0
609 1 20.2907 21.4625 0
610 1 20.8473 22.4266 0
611 1 21.4038 21.4624 0
612 1 21.9605 22.4265 0
613 1 22.517 21.4624 0
614 1 23.0737 22.4265 0
615 1 23.6302 21.4624 0
616 1 24.1868 22.4265 0
617 1 24.7434 21.4624 0
618 1 25.3 22.4265 0
619 1 25.8565 21.4624 0
620 1 26.4132 22.4265 0
621 1 26.9697 21.4624 0
622 1 27.5264 22.4265 0
623 1 28.0829 21.4624 0
624 1 28.6395 22.4265 0
625 1 0.253962 23.3906 0
626 1 0.810547 24.3547 0
627 1 1.36714 23.3906 0
628 1 1.92372 24.3547 0
629 1 2.48032 23.3906 0
630 1 3.03688 24.3547 0
631 1 3.59349 23.3906 0
632 1 4.15005 24.3547 0
633 1 4.70666 23.3906 0
634 1 5.26321 24.3547 0
635 1 5.81982 23.3906 0
636 1 6.37637 24.3547 0
637 1 6.93298 23.3906 0
638 1 7.48952 24.3547 0
639 1 8.04613 23.3906 0
640 1 8.60267 24.3547 0
641 1 9.15927 23.3907 0
642 1 9.71581 24.3548 0
643 1 10.2724 23.3907 0
644 1 10.829 24.3548 0
645 1 11.3856 23.3908 0
646 1 11.9421 24.3549 0
647 1 12.4987 23.3909 0
648 1 13.0553 24.3549 0
649 1 13.6119 23.3909 0
650 1 14.1685 24.355 0
651 1 14.7251 23.3909 0
652 1 15.2816 24.355 0
653 1 15.8382 23.3909 0
654 1 16.3948 24.3549 0
655 1 16.9514 23.3909 0
656 1 17.508 24.3549 0
657 1 18.0645 23.3908 0
658 1 18.6211 24.3548 0
659 1 19.1777 23.3907 0
660 1 19.7343 24.3548 0
661 1 20.2908 23.3907 0
662 1 20.8474 24.3547 0
663 1 21.404 23.3906 0
664 1 21.9606 24.3547 0
665 1 22.5171 23.3906 0
666 1 23.0737 24.3547 0
667 1 23.6303 23.3906 0
668 1 24.1869 24.3547 0
669 1 24.7434 23.3906 0
670 1 25.3001 24.3547 0
671 1 25.8566 23.3906 0
672 1 26.4132 24.3547 0
673 1 26.9698 23.3906 0
674 1 27.5264 24.3547 0
675 1 28.083 23.3906 0
676 1 28.6396 24.3547 0
677 1 0.253962 25.3188 0
678 1 0.810541 26.2828 0
679 1 1.36713 25.3188 0
680 1 1.9237 26.2828 0
681 1 2.48029 25.3188 0
682 1 3.03686 26.2828 0
683 1 3.59345 25.3188 0
684 1 4.15001 26.2828 0
685 1 4.70661 25.3188 0
686 1 5.26317 26.2829 0
687 1 5.81976 25.3188 0
688 1 6.37632 26.2829 0
689 1 6.93291 25.3188 0
690 1 7.48947 26.2829 0
691 1 8.04606 25.3188 0
692 1 8.60262 26.2829 0
693 1 9.15921 25.3188 0
694 1 9.71578 26.2829 0
695 1 10.2724 25.3189 0
696 1 10.8289 26.2829 0
697 1 11.3855 25.3189 0
698 1 11.9421 26.283 0
699 1 12.4987 25.3189 0
700 1 13.0553 26.283 0
701 1 13.6119 25.319 0
702 1 14.1685 26.283 0
703 1 14.7251 25.319 0
704 1 15.2816 26.283 0
705 1 15.8382 25.319 0
706 1 16.3948 26.283 0
707 1 16.9514 25.3189 0
708 1 17.508 26.283 0
709 1 18.0646 25.3189 0
710 1 18.6212 26.2829 0
711 1 19.1777 25.3189 0
712 1 19.7343 26.2829 0
713 1 20.2909 25.3188 0
714 1 20.8475 26.2829 0
715 1 21.404 25.3188 0
716 1 21.9606 26.2829 0
717 1 22.5172 25.3188 0
718 1 23.0738 26.2829 0
719 1 23.6303 25.3188 0
720 1 24.1869 26.2829 0
721 1 24.7435 25.3188 0
722 1 25.3001 26.2828 0
723 1 25.8567 25.3188 0
724 1 26.4132 26.2828 0
725 1 26.9698 25.3188 0
726 1 27.5264 26.2828 0
727 1 28.083 25.3188 0
728 1 28.6396 26.2828 0
729 1 0.253962 27.2469 0
730 1 0.810539 28.211 0
731 1 1.36712 27.2469 0
732 1 1.92369 28.211 0
733 1 2.48027 27.2469 0
734 1 3.03684 28.211 0
735 1 3.59343 27.2469 0
736 1 4.15 28.211 0
737 1 4.70658 27.2469 0
738 1 5.26315 28.211 0
739 1 5.81973 27.2469 0
740 1 6.3763 28.211 0
741 1 6.93288 27.247 0
742 1 7.48945 28.211 0
743 1 8.04603 27.247 0
744 1 8.60261 28.211 0
745 1 9.15919 27.247 0
746 1 9.71577 28.2111 0
747 1 10.2724 27.247 0
748 1 10.8289 28.2111 0
749 1 11.3855 27.247 0
750 1 11.9421 28.2111 0
751 1 12.4987 27.247 0
752 1 13.0553 28.2111 0
753 1 13.6119 27.247 0
754 1 14.1685 28.2111 0
755 1 14.7251 27.247 0
756 1 15.2816 28.2111 0
757 1 15.8382 27.247 0
758 1 16.3948 28.2111 0
759 1 16.9514 27.247 0
760 1 17.508 28.2111 0
761 1 18.0646 27.247 0
762 1 18.6212 28.2111 0
763 1 19.1777 27.247 0
764 1 19.7343 28.2111 0
765 1 20.2909 27.247 0
766 1 20.8475 28.211 0
767 1 21.4041 27.247 0
768 1 21.9606 28.211 0
769 1 22.5172 27.247 0
770 1 23.0738 28.211 0
771 1 23.6304 27.2469 0
772 1 24.187 28.211 0
773 1 24.7435 27.2469 0
774 1 25.3001 28.211 0
775 1 25.8567 27.2469 0
776 1 26.4133 28.211 0
