ITEM: TIMESTEP
241
ITEM: NUMBER OF ATOMS
781
ITEM: BOX BOUNDS pp pp pp
2.2985624445653005e-01 2.9220243999560029e+01
2.1987175999412678e-01 2.9208437803832993e+01
-2.8317404080785380e-01 2.8317404080785380e-01
ITEM: ATOMS id type x y z
1 1 0.229998 0.219927 0
2 1 0.787384 1.186 0
3 1 1.34463 0.22001 0
4 1 1.90201 1.18606 0
5 1 2.45925 0.22012 0
6 1 3.0166 1.18607 0
7 1 3.57383 0.220265 0
8 1 4.13116 1.18604 0
9 1 4.68838 0.220449 0
10 1 5.2457 1.18598 0
11 1 5.80292 0.22067 0
12 1 6.36027 1.18587 0
13 1 6.91753 0.220914 0
14 1 7.47492 1.1857 0
15 1 8.03228 0.221147 0
16 1 8.58973 1.18546 0
17 1 9.14724 0.221321 0
18 1 9.70474 1.18517 0
19 1 10.2624 0.221408 0
20 1 10.82 1.18483 0
21 1 11.3778 0.221393 0
22 1 11.9354 1.18449 0
23 1 12.4934 0.221287 0
24 1 13.051 1.18415 0
25 1 13.6091 0.221112 0
26 1 14.1667 1.18384 0
27 1 14.7248 0.220892 0
28 1 15.2825 1.18358 0
29 1 15.8405 0.220649 0
30 1 16.3982 1.18336 0
31 1 16.9562 0.220403 0
32 1 17.514 1.18323 0
33 1 18.0719 0.220171 0
34 1 18.6297 1.1832 0
35 1 19.1874 0.219968 0
36 1 19.7452 1.18331 0
37 1 20.3027 29.2084 0
38 1 20.8605 1.18357 0
39 1 21.4178 29.2083 0
40 1 21.9755 1.18394 0
41 1 22.5327 29.2082 0
42 1 23.0903 1.18438 0
43 1 23.6475 29.2082 0
44 1 24.205 1.18482 0
45 1 24.7621 29.2083 0
46 1 25.3195 1.18521 0
47 1 25.8766 29.2083 0
48 1 26.434 1.18551 0
49 1 26.9912 29.2084 0
50 1 27.5486 1.18574 0
51 1 28.1058 29.2084 0
52 1 28.6632 1.1859 0
53 1 0.230169 2.15199 0
54 1 0.787503 3.11807 0
55 1 1.34472 2.15206 0
56 1 1.90194 3.11804 0
57 1 2.45927 2.15202 0
58 1 3.01635 3.11784 0
59 1 3.57379 2.15186 0
60 1 4.13075 3.11747 0
61 1 4.68828 2.1516 0
62 1 5.24512 3.11691 0
63 1 5.80277 2.15122 0
64 1 6.3595 3.11615 0
65 1 6.9173 2.15071 0
66 1 7.47395 3.1152 0
67 1 8.03194 2.1501 0
68 1 8.58857 3.1141 0
69 1 9.14678 2.14939 0
70 1 9.70343 3.11292 0
71 1 10.2618 2.14867 0
72 1 10.8186 3.11177 0
73 1 11.3772 2.14797 0
74 1 11.9341 3.11075 0
75 1 12.4927 2.14736 0
76 1 13.0499 3.1099 0
77 1 13.6084 2.14686 0
78 1 14.1659 3.10924 0
79 1 14.7243 2.14646 0
80 1 15.2821 3.10878 0
81 1 15.8402 2.14618 0
82 1 16.3984 3.10852 0
83 1 16.9562 2.14604 0
84 1 17.5146 3.10852 0
85 1 18.0721 2.14608 0
86 1 18.6308 3.10886 0
87 1 19.1879 2.14636 0
88 1 19.7467 3.1096 0
89 1 20.3034 2.14689 0
90 1 20.8622 3.11076 0
91 1 21.4187 2.14767 0
92 1 21.9772 3.11221 0
93 1 22.5336 2.14859 0
94 1 23.0918 3.11373 0
95 1 23.6482 2.14951 0
96 1 24.2062 3.11508 0
97 1 24.7627 2.15033 0
98 1 25.3205 3.11617 0
99 1 25.8771 2.15098 0
100 1 26.4348 3.11699 0
101 1 26.9915 2.15147 0
102 1 27.5491 3.11756 0
103 1 28.106 2.1518 0
104 1 28.6635 3.11791 0
105 1 0.230431 4.08403 0
106 1 0.787603 5.05011 0
107 1 1.34469 4.08409 0
108 1 1.90165 5.05002 0
109 1 2.45895 4.08392 0
110 1 3.0157 5.04966 0
111 1 3.57319 4.08351 0
112 1 4.12973 5.04901 0
113 1 4.68741 4.08286 0
114 1 5.24372 5.04804 0
115 1 5.80161 4.08195 0
116 1 6.35772 5.04673 0
117 1 6.91585 4.08077 0
118 1 7.47178 5.04505 0
119 1 8.0302 4.07932 0
120 1 8.586 5.04302 0
121 1 9.14477 4.07767 0
122 1 9.70054 5.04073 0
123 1 10.2597 4.07597 0
124 1 10.8156 5.0384 0
125 1 11.375 4.07436 0
126 1 11.9313 5.03629 0
127 1 12.4908 4.07299 0
128 1 13.0476 5.03454 0
129 1 13.6071 4.07191 0
130 1 14.1645 5.03324 0
131 1 14.7236 4.07112 0
132 1 15.2817 5.03235 0
133 1 15.8403 4.07062 0
134 1 16.3992 5.03186 0
135 1 16.9571 4.07047 0
136 1 17.5166 5.03191 0
137 1 18.0738 4.07074 0
138 1 18.6339 5.03269 0
139 1 19.1902 4.07159 0
140 1 19.7505 5.03444 0
141 1 20.3061 4.07309 0
142 1 20.8661 5.03716 0
143 1 21.4214 4.07514 0
144 1 21.9807 5.04037 0
145 1 22.536 4.07739 0
146 1 23.0948 5.04326 0
147 1 23.6502 4.0794 0
148 1 24.2086 5.04559 0
149 1 24.7643 4.08104 0
150 1 25.3223 5.04733 0
151 1 25.8783 4.08229 0
152 1 26.4361 5.0486 0
153 1 26.9924 4.08317 0
154 1 27.55 5.04944 0
155 1 28.1066 4.08373 0
156 1 28.664 5.04992 0
157 1 0.230756 6.01608 0
158 1 0.787677 6.9822 0
159 1 1.34454 6.01612 0
160 1 1.9012 6.98206 0
161 1 2.45835 6.01585 0
162 1 3.01475 6.98158 0
163 1 3.57215 6.01527 0
164 1 4.12826 6.98075 0
165 1 4.68592 6.01433 0
166 1 5.24175 6.97951 0
167 1 5.79967 6.01301 0
168 1 6.35521 6.97779 0
169 1 6.91343 6.01125 0
170 1 7.46868 6.97552 0
171 1 8.02727 6.009 0
172 1 8.58225 6.97258 0
173 1 9.14133 6.00625 0
174 1 9.69613 6.9689 0
175 1 10.2559 6.00311 0
176 1 10.8107 6.96463 0
177 1 11.3712 6.00001 0
178 1 11.9265 6.96055 0
179 1 12.4875 5.99728 0
180 1 13.0436 6.95713 0
181 1 13.6046 5.99515 0
182 1 14.162 6.95459 0
183 1 14.7224 5.99363 0
184 1 15.2812 6.95285 0
185 1 15.8407 5.99264 0
186 1 16.4011 6.95178 0
187 1 16.9592 5.99225 0
188 1 17.5211 6.95159 0
189 1 18.0776 5.99272 0
190 1 18.6406 6.95302 0
191 1 19.1953 5.99451 0
192 1 19.7581 6.95713 0
193 1 20.3117 5.99798 0
194 1 20.8726 6.96375 0
195 1 21.4262 6.00256 0
196 1 21.9859 6.96938 0
197 1 22.54 6.00659 0
198 1 23.0989 6.97362 0
199 1 23.6534 6.00977 0
200 1 24.2118 6.97673 0
201 1 24.7668 6.01214 0
202 1 25.3248 6.97895 0
203 1 25.8802 6.01385 0
204 1 26.4379 6.98047 0
205 1 26.9938 6.01501 0
206 1 27.5512 6.98146 0
207 1 28.1074 6.01573 0
208 1 28.6646 6.98201 0
209 1 0.231095 7.94826 0
210 1 0.787704 8.91448 0
211 1 1.34431 7.94826 0
212 1 1.90064 8.91429 0
213 1 2.45756 7.94793 0
214 1 3.01357 8.91376 0
215 1 3.5708 7.94723 0
216 1 4.12648 8.91284 0
217 1 4.68401 7.94614 0
218 1 5.23935 8.91149 0
219 1 5.79718 7.94457 0
220 1 6.35213 8.9096 0
221 1 6.91029 7.94244 0
222 1 7.46486 8.907 0
223 1 8.02342 7.93957 0
224 1 8.57756 8.90345 0
225 1 9.13666 7.93577 0
226 1 9.69043 8.8986 0
227 1 10.2503 7.93087 0
228 1 10.8038 8.89207 0
229 1 11.3649 7.92498 0
230 1 11.9184 8.88374 0
231 1 12.4816 7.91976 0
232 1 13.0366 8.87732 0
233 1 13.6 7.91553 0
234 1 14.157 8.872 0
235 1 14.7202 7.91255 0
236 1 15.2801 8.86832 0
237 1 15.8417 7.91045 0
238 1 16.405 8.86551 0
239 1 16.9639 7.90917 0
240 1 17.5312 8.8638 0
241 1 18.086 7.90954 0
242 1 18.6562 8.86627 0
243 1 19.2061 7.91371 0
244 1 19.7692 8.88275 0
245 1 20.3202 7.92384 0
246 1 20.8807 8.89349 0
247 1 21.4328 7.93162 0
248 1 21.9921 8.90064 0
249 1 22.5451 7.9372 0
250 1 23.1036 8.90555 0
251 1 23.6574 7.94116 0
252 1 24.2154 8.90894 0
253 1 24.7698 7.94395 0
254 1 25.3275 8.91128 0
255 1 25.8825 7.94588 0
256 1 26.4399 8.91283 0
257 1 26.9953 7.94714 0
258 1 27.5525 8.91381 0
259 1 28.1083 7.94791 0
260 1 28.6652 8.91433 0
261 1 0.231401 9.88073 0
262 1 0.787643 10.8471 0
263 1 1.34399 9.88069 0
264 1 1.89992 10.8469 0
265 1 2.4566 9.88031 0
266 1 3.01219 10.8464 0
267 1 3.5692 9.87959 0
268 1 4.12442 10.8455 0
269 1 4.68175 9.87848 0
270 1 5.23654 10.8442 0
271 1 5.79421 9.87689 0
272 1 6.3485 10.8424 0
273 1 6.90655 9.87467 0
274 1 7.46029 10.8399 0
275 1 8.01879 9.8716 0
276 1 8.57194 10.8364 0
277 1 9.13101 9.86728 0
278 1 9.68355 10.8313 0
279 1 10.2434 9.86115 0
280 1 10.7953 10.8237 0
281 1 11.3564 9.8525 0
282 1 11.9078 10.8124 0
283 1 12.4709 9.84019 0
284 1 13.0213 10.7926 0
285 1 13.5919 9.83293 0
286 1 14.1483 10.7862 0
287 1 14.715 9.82566 0
288 1 15.2748 10.7746 0
289 1 15.843 9.82067 0
290 1 16.4124 10.7663 0
291 1 16.9745 9.81579 0
292 1 17.5706 10.746 0
293 1 18.1103 9.81184 0
294 1 18.6736 10.7993 0
295 1 19.2201 9.84079 0
296 1 19.7809 10.8179 0
297 1 20.33 9.85531 0
298 1 20.8894 10.8285 0
299 1 21.4402 9.86425 0
300 1 21.9988 10.8351 0
301 1 22.5508 9.8701 0
302 1 23.1087 10.8396 0
303 1 23.6617 9.87408 0
304 1 24.2193 10.8426 0
305 1 24.7731 9.87679 0
306 1 25.3304 10.8446 0
307 1 25.8849 9.87861 0
308 1 26.4419 10.8459 0
309 1 26.997 9.87977 0
310 1 27.5538 10.8467 0
311 1 28.1093 9.88045 0
312 1 28.6658 10.8471 0
313 1 0.231597 11.8137 0
314 1 0.787442 12.7803 0
315 1 1.34354 11.8136 0
316 1 1.89912 12.7801 0
317 1 2.4555 11.8132 0
318 1 3.01075 12.7796 0
319 1 3.56741 11.8126 0
320 1 4.12224 12.779 0
321 1 4.6792 11.8116 0
322 1 5.23348 12.778 0
323 1 5.79078 11.8102 0
324 1 6.34436 12.7767 0
325 1 6.9021 11.8083 0
326 1 7.45479 12.7748 0
327 1 8.01315 11.8056 0
328 1 8.56479 12.7722 0
329 1 9.12399 11.8018 0
330 1 9.67435 12.7684 0
331 1 10.2347 11.796 0
332 1 10.7836 12.7622 0
333 1 11.3456 11.7868 0
334 1 11.8926 12.7514 0
335 1 12.4573 11.7727 0
336 1 13.0029 12.7359 0
337 1 13.5679 11.7383 0
338 1 14.108 12.6732 0
339 1 14.7076 11.7378 0
340 1 15.2677 12.6965 0
341 1 15.8363 11.7163 0
342 1 16.5107 12.5613 0
343 1 17.04 11.6647 0
344 1 17.5879 12.7343 0
345 1 18.1306 11.7619 0
346 1 18.6894 12.7517 0
347 1 19.234 11.7827 0
348 1 19.7929 12.7624 0
349 1 20.3403 11.7942 0
350 1 20.8983 12.7689 0
351 1 21.4479 11.8012 0
352 1 22.0053 12.7732 0
353 1 22.5566 11.8058 0
354 1 23.1135 12.7759 0
355 1 23.6661 11.8088 0
356 1 24.2227 12.7778 0
357 1 24.7764 11.8109 0
358 1 25.3328 12.779 0
359 1 25.8872 11.8123 0
360 1 26.4435 12.7798 0
361 1 26.9985 11.8131 0
362 1 27.5547 12.7802 0
363 1 28.1102 11.8135 0
364 1 28.6662 12.7803 0
365 1 0.231561 13.7471 0
366 1 0.787113 14.7139 0
367 1 1.34302 13.747 0
368 1 1.89845 14.7137 0
369 1 2.45445 13.7467 0
370 1 3.00966 14.7135 0
371 1 3.56573 13.7463 0
372 1 4.12059 14.7133 0
373 1 4.67674 13.7457 0
374 1 5.23104 14.713 0
375 1 5.7873 13.7449 0
376 1 6.34081 14.7126 0
377 1 6.89725 13.7439 0
378 1 7.44968 14.7122 0
379 1 8.00647 13.7425 0
380 1 8.55753 14.7117 0
381 1 9.11481 13.7404 0
382 1 9.66428 14.7108 0
383 1 10.2221 13.7372 0
384 1 10.7702 14.7089 0
385 1 11.3276 13.7318 0
386 1 11.8765 14.7043 0
387 1 12.4293 13.7206 0
388 1 12.987 14.687 0
389 1 13.5269 13.7144 0
390 1 14.1406 14.7 0
391 1 14.5985 13.6163 0
392 1 15.4157 14.2659 0
393 1 16.0462 13.4739 0
394 1 16.4414 14.7172 0
395 1 17.076 13.7344 0
396 1 17.5809 14.7165 0
397 1 18.1573 13.7305 0
398 1 18.6903 14.7129 0
399 1 19.2502 13.7356 0
400 1 19.7956 14.713 0
401 1 20.3504 13.7396 0
402 1 20.901 14.7135 0
403 1 21.4546 13.7424 0
404 1 22.0074 14.7139 0
405 1 22.5611 13.7443 0
406 1 23.1151 14.7142 0
407 1 23.6693 13.7455 0
408 1 24.2238 14.7143 0
409 1 24.7785 13.7463 0
410 1 25.3336 14.7143 0
411 1 25.8887 13.7468 0
412 1 26.444 14.7143 0
413 1 26.9994 13.7471 0
414 1 27.555 14.7142 0
415 1 28.1106 13.7472 0
416 1 28.6662 14.7141 0
417 1 0.231255 15.6809 0
418 1 0.786796 16.6476 0
419 1 1.34262 15.6807 0
420 1 1.89824 16.6476 0
421 1 2.45388 15.6806 0
422 1 3.00951 16.6477 0
423 1 3.56491 15.6806 0
424 1 4.12046 16.648 0
425 1 4.67551 15.6807 0
426 1 5.23087 16.6486 0
427 1 5.78543 15.6809 0
428 1 6.34054 16.6495 0
429 1 6.89441 15.6813 0
430 1 7.44925 16.6511 0
431 1 8.00203 15.6821 0
432 1 8.5568 16.6535 0
433 1 9.10775 15.6832 0
434 1 9.66297 16.6572 0
435 1 10.2102 15.6847 0
436 1 10.7675 16.663 0
437 1 11.3068 15.6867 0
438 1 11.8706 16.6726 0
439 1 12.3935 15.6885 0
440 1 12.9741 16.6849 0
441 1 13.4652 15.6668 0
442 1 14.0437 16.9115 0
443 1 14.4686 15.9867 0
444 1 15.3043 16.7162 0
445 1 16.0032 15.8008 0
446 1 16.4652 16.7562 0
447 1 17.0645 15.6994 0
448 1 17.5697 16.6866 0
449 1 18.1496 15.6945 0
450 1 18.6779 16.6707 0
451 1 19.245 15.6894 0
452 1 19.7855 16.6621 0
453 1 20.347 15.6867 0
454 1 20.8935 16.6572 0
455 1 21.4524 15.685 0
456 1 22.0022 16.6541 0
457 1 22.5597 15.6838 0
458 1 23.1115 16.652 0
459 1 23.6683 15.6829 0
460 1 24.2214 16.6505 0
461 1 24.778 15.6822 0
462 1 25.332 16.6495 0
463 1 25.8883 15.6817 0
464 1 26.4429 16.6487 0
465 1 26.9991 15.6814 0
466 1 27.5542 16.6482 0
467 1 28.1103 15.6811 0
468 1 28.6657 16.6478 0
469 1 0.230824 17.6144 0
470 1 0.78664 18.581 0
471 1 1.34255 17.6144 0
472 1 1.8986 18.5811 0
473 1 2.45413 17.6145 0
474 1 3.01039 18.5815 0
475 1 3.56549 17.6149 0
476 1 4.12191 18.5822 0
477 1 4.67648 17.6156 0
478 1 5.23305 18.5835 0
479 1 5.78691 17.6169 0
480 1 6.34367 18.5855 0
481 1 6.89662 17.6188 0
482 1 7.45366 18.5885 0
483 1 8.0055 17.6217 0
484 1 8.56299 18.593 0
485 1 9.11334 17.6261 0
486 1 9.67149 18.5998 0
487 1 10.2199 17.6329 0
488 1 10.7789 18.6109 0
489 1 11.3244 17.6441 0
490 1 11.8844 18.6311 0
491 1 12.425 17.6637 0
492 1 12.982 18.7036 0
493 1 13.5063 17.7926 0
494 1 14.1573 18.6694 0
495 1 14.7462 17.7216 0
496 1 15.2987 18.6615 0
497 1 15.864 17.6883 0
498 1 16.4219 18.6433 0
499 1 17.0036 17.6907 0
500 1 17.5485 18.6364 0
501 1 18.1126 17.6525 0
502 1 18.6607 18.6143 0
503 1 19.2229 17.6381 0
504 1 19.7723 18.6028 0
505 1 20.333 17.6299 0
506 1 20.8835 18.5956 0
507 1 21.4431 17.6248 0
508 1 21.9947 18.5909 0
509 1 22.5534 17.6214 0
510 1 23.106 18.5876 0
511 1 23.6641 17.619 0
512 1 24.2175 18.5853 0
513 1 24.775 17.6173 0
514 1 25.3291 18.5836 0
515 1 25.8863 17.6161 0
516 1 26.441 18.5824 0
517 1 26.9978 17.6153 0
518 1 27.553 18.5817 0
519 1 28.1095 17.6147 0
520 1 28.665 18.5812 0
521 1 0.230452 19.5475 0
522 1 0.786655 20.5139 0
523 1 1.34279 19.5475 0
524 1 1.89928 20.5141 0
525 1 2.455 19.5478 0
526 1 3.01176 20.5146 0
527 1 3.56703 19.5485 0
528 1 4.12405 20.5157 0
529 1 4.67878 19.5497 0
530 1 5.23608 20.5173 0
531 1 5.79017 19.5516 0
532 1 6.34778 20.5198 0
533 1 6.9011 19.5544 0
534 1 7.45911 20.5234 0
535 1 8.01151 19.5586 0
536 1 8.57009 20.5288 0
537 1 9.12145 19.5648 0
538 1 9.68085 20.5367 0
539 1 10.2308 19.5745 0
540 1 10.7916 20.5493 0
541 1 11.3394 19.5911 0
542 1 11.9032 20.571 0
543 1 12.4463 19.6304 0
544 1 13.0324 20.5714 0
545 1 13.591 19.6204 0
546 1 14.161 20.5684 0
547 1 14.7254 19.6138 0
548 1 15.2876 20.5648 0
549 1 15.8553 19.608 0
550 1 16.4116 20.5602 0
551 1 16.9772 19.5974 0
552 1 17.5317 20.553 0
553 1 18.0978 19.5889 0
554 1 18.6494 20.5455 0
555 1 19.2114 19.5752 0
556 1 19.7634 20.5363 0
557 1 20.3237 19.5663 0
558 1 20.8763 20.5294 0
559 1 21.4357 19.5603 0
560 1 21.9889 20.5246 0
561 1 22.5476 19.5562 0
562 1 23.1013 20.5211 0
563 1 23.6595 19.5532 0
564 1 24.2138 20.5185 0
565 1 24.7716 19.5511 0
566 1 25.3263 20.5167 0
567 1 25.8838 19.5496 0
568 1 26.439 20.5154 0
569 1 26.9961 19.5485 0
570 1 27.5516 20.5145 0
571 1 28.1085 19.5479 0
572 1 28.6643 20.514 0
573 1 0.230194 21.4801 0
574 1 0.786769 22.4463 0
575 1 1.3432 21.4802 0
576 1 1.90005 22.4465 0
577 1 2.4561 21.4806 0
578 1 3.01323 22.4472 0
579 1 3.56885 21.4814 0
580 1 4.12626 22.4483 0
581 1 4.68144 21.4828 0
582 1 5.23914 22.4499 0
583 1 5.79376 21.4849 0
584 1 6.35183 22.4524 0
585 1 6.90585 21.488 0
586 1 7.4644 22.4559 0
587 1 8.0177 21.4923 0
588 1 8.57695 22.4608 0
589 1 9.12947 21.4986 0
590 1 9.68989 22.4674 0
591 1 10.2416 21.5078 0
592 1 10.8042 22.4755 0
593 1 11.3551 21.5206 0
594 1 11.9227 22.4798 0
595 1 12.4771 21.5244 0
596 1 13.0433 22.4809 0
597 1 13.601 21.524 0
598 1 14.1643 22.4803 0
599 1 14.7245 21.5221 0
600 1 15.2849 22.4789 0
601 1 15.8469 21.5195 0
602 1 16.4048 22.4767 0
603 1 16.9677 21.5158 0
604 1 17.5234 22.4736 0
605 1 18.086 21.5104 0
606 1 18.6405 22.4694 0
607 1 19.2023 21.5043 0
608 1 19.7561 22.4647 0
609 1 20.3165 21.4978 0
610 1 20.8703 22.46 0
611 1 21.4298 21.4926 0
612 1 21.9839 22.4561 0
613 1 22.5428 21.4888 0
614 1 23.0973 22.453 0
615 1 23.6557 21.4859 0
616 1 24.2106 22.4507 0
617 1 24.7686 21.4837 0
618 1 25.3238 22.4489 0
619 1 25.8815 21.4822 0
620 1 26.4371 22.4477 0
621 1 26.9945 21.4811 0
622 1 27.5505 22.4468 0
623 1 28.1075 21.4804 0
624 1 28.6638 22.4464 0
625 1 0.230036 23.4124 0
626 1 0.786923 24.3784 0
627 1 1.34364 23.4124 0
628 1 1.90078 24.3787 0
629 1 2.45719 23.4129 0
630 1 3.01457 24.3792 0
631 1 3.57063 23.4137 0
632 1 4.12826 24.3802 0
633 1 4.68394 23.415 0
634 1 5.24186 24.3817 0
635 1 5.79715 23.417 0
636 1 6.35543 24.3837 0
637 1 6.91026 23.4197 0
638 1 7.46903 24.3864 0
639 1 8.02343 23.4233 0
640 1 8.58291 24.3899 0
641 1 9.13692 23.4281 0
642 1 9.69746 24.3937 0
643 1 10.2514 23.4336 0
644 1 10.8133 24.3968 0
645 1 11.3682 23.4374 0
646 1 11.9304 24.3986 0
647 1 12.4867 23.4392 0
648 1 13.0481 24.3993 0
649 1 13.6058 23.4394 0
650 1 14.1661 24.3992 0
651 1 14.7249 23.4387 0
652 1 15.2839 24.3985 0
653 1 15.8437 23.4375 0
654 1 16.4015 24.3974 0
655 1 16.9619 23.4356 0
656 1 17.5185 24.3958 0
657 1 18.0792 23.433 0
658 1 18.6349 24.3937 0
659 1 19.1954 23.4298 0
660 1 19.7506 24.3912 0
661 1 20.3105 23.4262 0
662 1 20.8655 24.3886 0
663 1 21.4248 23.4227 0
664 1 21.9799 24.386 0
665 1 22.5387 23.4198 0
666 1 23.094 24.3838 0
667 1 23.6524 23.4174 0
668 1 24.2079 24.3819 0
669 1 24.766 23.4155 0
670 1 25.3218 24.3805 0
671 1 25.8795 23.4142 0
672 1 26.4356 24.3795 0
673 1 26.9931 23.4132 0
674 1 27.5495 24.3788 0
675 1 28.1068 23.4126 0
676 1 28.6634 24.3785 0
677 1 0.229945 25.3444 0
678 1 0.787089 26.3104 0
679 1 1.34406 25.3445 0
680 1 1.9014 26.3107 0
681 1 2.45814 25.3449 0
682 1 3.01566 26.3111 0
683 1 3.57215 25.3456 0
684 1 4.12987 26.3118 0
685 1 4.68608 25.3466 0
686 1 5.24402 26.3128 0
687 1 5.79998 25.3481 0
688 1 6.35819 26.3142 0
689 1 6.91391 25.3501 0
690 1 7.4725 26.3159 0
691 1 8.02804 25.3525 0
692 1 8.58711 26.3177 0
693 1 9.14263 25.3552 0
694 1 9.70222 26.3195 0
695 1 10.258 25.3576 0
696 1 10.8179 26.3208 0
697 1 11.3742 25.3592 0
698 1 11.934 26.3217 0
699 1 12.491 25.3601 0
700 1 13.0504 26.322 0
701 1 13.608 25.3603 0
702 1 14.1669 26.3219 0
703 1 14.7251 25.36 0
704 1 15.2833 26.3216 0
705 1 15.8421 25.3594 0
706 1 16.3997 26.321 0
707 1 16.9588 25.3584 0
708 1 17.5158 26.3202 0
709 1 18.0751 25.3571 0
710 1 18.6317 26.3192 0
711 1 19.1909 25.3555 0
712 1 19.7471 26.3179 0
713 1 20.3062 25.3536 0
714 1 20.8623 26.3165 0
715 1 21.4211 25.3516 0
716 1 21.977 26.3151 0
717 1 22.5355 25.3497 0
718 1 23.0916 26.3138 0
719 1 23.6497 25.3481 0
720 1 24.2059 26.3127 0
721 1 24.7639 25.3467 0
722 1 25.3202 26.3118 0
723 1 25.878 25.3457 0
724 1 26.4345 26.3111 0
725 1 26.9921 25.345 0
726 1 27.5488 26.3107 0
727 1 28.1062 25.3446 0
728 1 28.6631 26.3105 0
729 1 0.229925 27.2764 0
730 1 0.787244 28.2425 0
731 1 1.34441 27.2765 0
732 1 1.90182 28.2426 0
733 1 2.45886 27.2768 0
734 1 3.01637 28.2429 0
735 1 3.57327 27.2772 0
736 1 4.13087 28.2432 0
737 1 4.68763 27.2779 0
738 1 5.24535 28.2437 0
739 1 5.80198 27.2787 0
740 1 6.35985 28.2443 0
741 1 6.9164 27.2798 0
742 1 7.47448 28.245 0
743 1 8.03103 27.281 0
744 1 8.58931 28.2457 0
745 1 9.14598 27.2822 0
746 1 9.70443 28.2463 0
747 1 10.2613 27.2832 0
748 1 10.8198 28.2467 0
749 1 11.377 27.2839 0
750 1 11.9354 28.2469 0
751 1 12.4929 27.2842 0
752 1 13.0512 28.2469 0
753 1 13.609 27.2842 0
754 1 14.167 28.2468 0
755 1 14.7251 27.2841 0
756 1 15.2829 28.2466 0
757 1 15.8411 27.2837 0
758 1 16.3987 28.2462 0
759 1 16.9571 27.2832 0
760 1 17.5144 28.2459 0
761 1 18.0728 27.2826 0
762 1 18.63 28.2454 0
763 1 19.1884 27.2818 0
764 1 19.7454 28.2449 0
765 1 20.3037 27.281 0
766 1 20.8606 28.2444 0
767 1 21.4187 27.28 0
768 1 21.9755 28.2439 0
769 1 22.5335 27.2791 0
770 1 23.0903 28.2435 0
771 1 23.648 27.2783 0
772 1 24.2049 28.2431 0
773 1 24.7625 27.2776 0
774 1 25.3194 28.2428 0
775 1 25.8769 27.2771 0
776 1 26.4339 28.2426 0
777 1 26.9914 27.2767 0
778 1 27.5485 28.2425 0
779 1 28.1058 27.2765 0
780 1 28.663 28.2425 0
781 1 15.1342 15.23 0
