ITEM: TIMESTEP
176
ITEM: NUMBER OF ATOMS
780
ITEM: BOX BOUNDS pp pp pp
2.5343317560958845e-01 2.9196667068406953e+01
2.5324565566116097e-01 2.9175063908165722e+01
-2.8317404080785380e-01 2.8317404080785380e-01
ITEM: ATOMS id type x y z
1 1 0.253433 0.253246 0
2 1 0.810034 1.21731 0
3 1 1.36663 0.253246 0
4 1 1.92324 1.21731 0
5 1 2.47984 0.253246 0
6 1 3.03644 1.21731 0
7 1 3.59304 0.253246 0
8 1 4.14964 1.21731 0
9 1 4.70624 0.253246 0
10 1 5.26284 1.21731 0
11 1 5.81944 0.253246 0
12 1 6.37604 1.21731 0
13 1 6.93264 0.253246 0
14 1 7.48924 1.21731 0
15 1 8.04584 0.253246 0
16 1 8.60244 1.21731 0
17 1 9.15904 0.253246 0
18 1 9.71564 1.21731 0
19 1 10.2722 0.253246 0
20 1 10.8288 1.21731 0
21 1 11.3854 0.253246 0
22 1 11.942 1.21731 0
23 1 12.4986 0.253246 0
24 1 13.0552 1.21731 0
25 1 13.6118 0.253246 0
26 1 14.1684 1.21731 0
27 1 14.7251 0.253246 0
28 1 15.2817 1.21731 0
29 1 15.8383 0.253246 0
30 1 16.3949 1.21731 0
31 1 16.9515 0.253246 0
32 1 17.5081 1.21731 0
33 1 18.0647 0.253246 0
34 1 18.6213 1.21731 0
35 1 19.1779 0.253246 0
36 1 19.7345 1.21731 0
37 1 20.2911 0.253246 0
38 1 20.8477 1.21731 0
39 1 21.4043 0.253246 0
40 1 21.9609 1.21731 0
41 1 22.5175 0.253246 0
42 1 23.0741 1.21731 0
43 1 23.6307 0.253246 0
44 1 24.1873 1.21731 0
45 1 24.7439 0.253246 0
46 1 25.3005 1.21731 0
47 1 25.8571 0.253246 0
48 1 26.4137 1.21731 0
49 1 26.9703 0.253246 0
50 1 27.5269 1.21731 0
51 1 28.0835 0.253246 0
52 1 28.6401 1.21731 0
53 1 0.253433 2.18137 0
54 1 0.810034 3.14543 0
55 1 1.36663 2.18137 0
56 1 1.92324 3.14543 0
57 1 2.47984 2.18137 0
58 1 3.03644 3.14543 0
59 1 3.59304 2.18137 0
60 1 4.14964 3.14543 0
61 1 4.70624 2.18137 0
62 1 5.26284 3.14543 0
63 1 5.81944 2.18137 0
64 1 6.37604 3.14543 0
65 1 6.93264 2.18137 0
66 1 7.48924 3.14543 0
67 1 8.04584 2.18137 0
68 1 8.60244 3.14543 0
69 1 9.15904 2.18137 0
70 1 9.71564 3.14543 0
71 1 10.2722 2.18137 0
72 1 10.8288 3.14543 0
73 1 11.3854 2.18137 0
74 1 11.942 3.14543 0
75 1 12.4986 2.18137 0
76 1 13.0552 3.14543 0
77 1 13.6118 2.18137 0
78 1 14.1684 3.14543 0
79 1 14.7251 2.18137 0
80 1 15.2817 3.14543 0
81 1 15.8383 2.18137 0
82 1 16.3949 3.14543 0
83 1 16.9515 2.18137 0
84 1 17.5081 3.14543 0
85 1 18.0647 2.18137 0
86 1 18.6213 3.14543 0
87 1 19.1779 2.18137 0
88 1 19.7345 3.14543 0
89 1 20.2911 2.18137 0
90 1 20.8477 3.14543 0
91 1 21.4043 2.18137 0
92 1 21.9609 3.14543 0
93 1 22.5175 2.18137 0
94 1 23.0741 3.14543 0
95 1 23.6307 2.18137 0
96 1 24.1873 3.14543 0
97 1 24.7439 2.18137 0
98 1 25.3005 3.14543 0
99 1 25.8571 2.18137 0
100 1 26.4137 3.14543 0
101 1 26.9703 2.18137 0
102 1 27.5269 3.14543 0
103 1 28.0835 2.18137 0
104 1 28.6401 3.14543 0
105 1 0.253433 4.10949 0
106 1 0.810034 5.07355 0
107 1 1.36663 4.10949 0
108 1 1.92324 5.07355 0
109 1 2.47984 4.10949 0
110 1 3.03644 5.07355 0
111 1 3.59304 4.10949 0
112 1 4.14964 5.07355 0
113 1 4.70624 4.10949 0
114 1 5.26284 5.07355 0
115 1 5.81944 4.10949 0
116 1 6.37604 5.07355 0
117 1 6.93264 4.10949 0
118 1 7.48924 5.07355 0
119 1 8.04584 4.10949 0
120 1 8.60244 5.07355 0
121 1 9.15904 4.10949 0
122 1 9.71564 5.07355 0
123 1 10.2722 4.10949 0
124 1 10.8288 5.07355 0
125 1 11.3854 4.10949 0
126 1 11.942 5.07355 0
127 1 12.4986 4.10949 0
128 1 13.0552 5.07355 0
129 1 13.6118 4.10949 0
130 1 14.1684 5.07355 0
131 1 14.7251 4.10949 0
132 1 15.2817 5.07355 0
133 1 15.8383 4.10949 0
134 1 16.3949 5.07355 0
135 1 16.9515 4.10949 0
136 1 17.5081 5.07355 0
137 1 18.0647 4.10949 0
138 1 18.6213 5.07355 0
139 1 19.1779 4.10949 0
140 1 19.7345 5.07355 0
141 1 20.2911 4.10949 0
142 1 20.8477 5.07355 0
143 1 21.4043 4.10949 0
144 1 21.9609 5.07355 0
145 1 22.5175 4.10949 0
146 1 23.0741 5.07355 0
147 1 23.6307 4.10949 0
148 1 24.1873 5.07355 0
149 1 24.7439 4.10949 0
150 1 25.3005 5.07355 0
151 1 25.8571 4.10949 0
152 1 26.4137 5.07355 0
153 1 26.9703 4.10949 0
154 1 27.5269 5.07355 0
155 1 28.0835 4.10949 0
156 1 28.6401 5.07355 0
157 1 0.253433 6.03761 0
158 1 0.810034 7.00167 0
159 1 1.36663 6.03761 0
160 1 1.92324 7.00167 0
161 1 2.47984 6.03761 0
162 1 3.03644 7.00167 0
163 1 3.59304 6.03761 0
164 1 4.14964 7.00167 0
165 1 4.70624 6.03761 0
166 1 5.26284 7.00167 0
167 1 5.81944 6.03761 0
168 1 6.37604 7.00167 0
169 1 6.93264 6.03761 0
170 1 7.48924 7.00167 0
171 1 8.04584 6.03761 0
172 1 8.60244 7.00167 0
173 1 9.15904 6.03761 0
174 1 9.71564 7.00167 0
175 1 10.2722 6.03761 0
176 1 10.8288 7.00167 0
177 1 11.3854 6.03761 0
178 1 11.942 7.00167 0
179 1 12.4986 6.03761 0
180 1 13.0552 7.00167 0
181 1 13.6118 6.03761 0
182 1 14.1684 7.00167 0
183 1 14.7251 6.03761 0
184 1 15.2817 7.00167 0
185 1 15.8383 6.03761 0
186 1 16.3949 7.00167 0
187 1 16.9515 6.03761 0
188 1 17.5081 7.00167 0
189 1 18.0647 6.03761 0
190 1 18.6213 7.00167 0
191 1 19.1779 6.03761 0
192 1 19.7345 7.00167 0
193 1 20.2911 6.03761 0
194 1 20.8477 7.00167 0
195 1 21.4043 6.03761 0
196 1 21.9609 7.00167 0
197 1 22.5175 6.03761 0
198 1 23.0741 7.00167 0
199 1 23.6307 6.03761 0
200 1 24.1873 7.00167 0
201 1 24.7439 6.03761 0
202 1 25.3005 7.00167 0
203 1 25.8571 6.03761 0
204 1 26.4137 7.00167 0
205 1 26.9703 6.03761 0
206 1 27.5269 7.00167 0
207 1 28.0835 6.03761 0
208 1 28.6401 7.00167 0
209 1 0.253433 7.96573 0
210 1 0.810034 8.92979 0
211 1 1.36663 7.96573 0
212 1 1.92324 8.92979 0
213 1 2.47984 7.96573 0
214 1 3.03644 8.92979 0
215 1 3.59304 7.96573 0
216 1 4.14964 8.92979 0
217 1 4.70624 7.96573 0
218 1 5.26284 8.92979 0
219 1 5.81944 7.96573 0
220 1 6.37604 8.92979 0
221 1 6.93264 7.96573 0
222 1 7.48924 8.92979 0
223 1 8.04584 7.96573 0
224 1 8.60244 8.92979 0
225 1 9.15904 7.96573 0
226 1 9.71564 8.92979 0
227 1 10.2722 7.96573 0
228 1 10.8288 8.92979 0
229 1 11.3854 7.96573 0
230 1 11.942 8.92979 0
231 1 12.4986 7.96573 0
232 1 13.0552 8.92979 0
233 1 13.6118 7.96573 0
234 1 14.1684 8.92979 0
235 1 14.7251 7.96573 0
236 1 15.2817 8.92979 0
237 1 15.8383 7.96573 0
238 1 16.3949 8.92979 0
239 1 16.9515 7.96573 0
240 1 17.5081 8.92979 0
241 1 18.0647 7.96573 0
242 1 18.6213 8.92979 0
243 1 19.1779 7.96573 0
244 1 19.7345 8.92979 0
245 1 20.2911 7.96573 0
246 1 20.8477 8.92979 0
247 1 21.4043 7.96573 0
248 1 21.9609 8.92979 0
249 1 22.5175 7.96573 0
250 1 23.0741 8.92979 0
251 1 23.6307 7.96573 0
252 1 24.1873 8.92979 0
253 1 24.7439 7.96573 0
254 1 25.3005 8.92979 0
255 1 25.8571 7.96573 0
256 1 26.4137 8.92979 0
257 1 26.9703 7.96573 0
258 1 27.5269 8.92979 0
259 1 28.0835 7.96573 0
260 1 28.6401 8.92979 0
261 1 0.253433 9.89385 0
262 1 0.810034 10.8579 0
263 1 1.36663 9.89385 0
264 1 1.92324 10.8579 0
265 1 2.47984 9.89385 0
266 1 3.03644 10.8579 0
267 1 3.59304 9.89385 0
268 1 4.14964 10.8579 0
269 1 4.70624 9.89385 0
270 1 5.26284 10.8579 0
271 1 5.81944 9.89385 0
272 1 6.37604 10.8579 0
273 1 6.93264 9.89385 0
274 1 7.48924 10.8579 0
275 1 8.04584 9.89385 0
276 1 8.60244 10.8579 0
277 1 9.15904 9.89385 0
278 1 9.71564 10.8579 0
279 1 10.2722 9.89385 0
280 1 10.8288 10.8579 0
281 1 11.3854 9.89385 0
282 1 11.942 10.8579 0
283 1 12.4986 9.89385 0
284 1 13.0552 10.8579 0
285 1 13.6118 9.89385 0
286 1 14.1684 10.8579 0
287 1 14.7251 9.89385 0
288 1 15.2817 10.8579 0
289 1 15.8383 9.89385 0
290 1 16.3949 10.8579 0
291 1 16.9515 9.89385 0
292 1 17.5081 10.8579 0
293 1 18.0647 9.89385 0
294 1 18.6213 10.8579 0
295 1 19.1779 9.89385 0
296 1 19.7345 10.8579 0
297 1 20.2911 9.89385 0
298 1 20.8477 10.8579 0
299 1 21.4043 9.89385 0
300 1 21.9609 10.8579 0
301 1 22.5175 9.89385 0
302 1 23.0741 10.8579 0
303 1 23.6307 9.89385 0
304 1 24.1873 10.8579 0
305 1 24.7439 9.89385 0
306 1 25.3005 10.8579 0
307 1 25.8571 9.89385 0
308 1 26.4137 10.8579 0
309 1 26.9703 9.89385 0
310 1 27.5269 10.8579 0
311 1 28.0835 9.89385 0
312 1 28.6401 10.8579 0
313 1 0.253433 11.822 0
314 1 0.810034 12.786 0
315 1 1.36663 11.822 0
316 1 1.92324 12.786 0
317 1 2.47984 11.822 0
318 1 3.03644 12.786 0
319 1 3.59304 11.822 0
320 1 4.14964 12.786 0
321 1 4.70624 11.822 0
322 1 5.26284 12.786 0
323 1 5.81944 11.822 0
324 1 6.37604 12.786 0
325 1 6.93264 11.822 0
326 1 7.48924 12.786 0
327 1 8.04584 11.822 0
328 1 8.60244 12.786 0
329 1 9.15904 11.822 0
330 1 9.71564 12.786 0
331 1 10.2722 11.822 0
332 1 10.8288 12.786 0
333 1 11.3854 11.822 0
334 1 11.942 12.786 0
335 1 12.4986 11.822 0
336 1 13.0552 12.786 0
337 1 13.6118 11.822 0
338 1 14.1684 12.786 0
339 1 14.7251 11.822 0
340 1 15.2817 12.786 0
341 1 15.8383 11.822 0
342 1 16.3949 12.786 0
343 1 16.9515 11.822 0
344 1 17.5081 12.786 0
345 1 18.0647 11.822 0
346 1 18.6213 12.786 0
347 1 19.1779 11.822 0
348 1 19.7345 12.786 0
349 1 20.2911 11.822 0
350 1 20.8477 12.786 0
351 1 21.4043 11.822 0
352 1 21.9609 12.786 0
353 1 22.5175 11.822 0
354 1 23.0741 12.786 0
355 1 23.6307 11.822 0
356 1 24.1873 12.786 0
357 1 24.7439 11.822 0
358 1 25.3005 12.786 0
359 1 25.8571 11.822 0
360 1 26.4137 12.786 0
361 1 26.9703 11.822 0
362 1 27.5269 12.786 0
363 1 28.0835 11.822 0
364 1 28.6401 12.786 0
365 1 0.253433 13.7501 0
366 1 0.810034 14.7142 0
367 1 1.36663 13.7501 0
368 1 1.92324 14.7142 0
369 1 2.47984 13.7501 0
370 1 3.03644 14.7142 0
371 1 3.59304 13.7501 0
372 1 4.14964 14.7142 0
373 1 4.70624 13.7501 0
374 1 5.26284 14.7142 0
375 1 5.81944 13.7501 0
376 1 6.37604 14.7142 0
377 1 6.93264 13.7501 0
378 1 7.48924 14.7142 0
379 1 8.04584 13.7501 0
380 1 8.60244 14.7142 0
381 1 9.15904 13.7501 0
382 1 9.71564 14.7142 0
383 1 10.2722 13.7501 0
384 1 10.8288 14.7142 0
385 1 11.3854 13.7501 0
386 1 11.942 14.7142 0
387 1 12.4986 13.7501 0
388 1 13.0552 14.7142 0
389 1 13.6118 13.7501 0
390 1 14.1684 14.7142 0
391 1 14.7251 13.7501 0
392 1 15.2817 14.7142 0
393 1 15.8383 13.7501 0
394 1 16.3949 14.7142 0
395 1 16.9515 13.7501 0
396 1 17.5081 14.7142 0
397 1 18.0647 13.7501 0
398 1 18.6213 14.7142 0
399 1 19.1779 13.7501 0
400 1 19.7345 14.7142 0
401 1 20.2911 13.7501 0
402 1 20.8477 14.7142 0
403 1 21.4043 13.7501 0
404 1 21.9609 14.7142 0
405 1 22.5175 13.7501 0
406 1 23.0741 14.7142 0
407 1 23.6307 13.7501 0
408 1 24.1873 14.7142 0
409 1 24.7439 13.7501 0
410 1 25.3005 14.7142 0
411 1 25.8571 13.7501 0
412 1 26.4137 14.7142 0
413 1 26.9703 13.7501 0
414 1 27.5269 14.7142 0
415 1 28.0835 13.7501 0
416 1 28.6401 14.7142 0
417 1 0.253433 15.6782 0
418 1 0.810034 16.6423 0
419 1 1.36663 15.6782 0
420 1 1.92324 16.6423 0
421 1 2.47984 15.6782 0
422 1 3.03644 16.6423 0
423 1 3.59304 15.6782 0
424 1 4.14964 16.6423 0
425 1 4.70624 15.6782 0
426 1 5.26284 16.6423 0
427 1 5.81944 15.6782 0
428 1 6.37604 16.6423 0
429 1 6.93264 15.6782 0
430 1 7.48924 16.6423 0
431 1 8.04584 15.6782 0
432 1 8.60244 16.6423 0
433 1 9.15904 15.6782 0
434 1 9.71564 16.6423 0
435 1 10.2722 15.6782 0
436 1 10.8288 16.6423 0
437 1 11.3854 15.6782 0
438 1 11.942 16.6423 0
439 1 12.4986 15.6782 0
440 1 13.0552 16.6423 0
441 1 13.6118 15.6782 0
442 1 14.1684 16.6423 0
443 1 14.7251 15.6782 0
444 1 15.2817 16.6423 0
445 1 15.8383 15.6782 0
446 1 16.3949 16.6423 0
447 1 16.9515 15.6782 0
448 1 17.5081 16.6423 0
449 1 18.0647 15.6782 0
450 1 18.6213 16.6423 0
451 1 19.1779 15.6782 0
452 1 19.7345 16.6423 0
453 1 20.2911 15.6782 0
454 1 20.8477 16.6423 0
455 1 21.4043 15.6782 0
456 1 21.9609 16.6423 0
457 1 22.5175 15.6782 0
458 1 23.0741 16.6423 0
459 1 23.6307 15.6782 0
460 1 24.1873 16.6423 0
461 1 24.7439 15.6782 0
462 1 25.3005 16.6423 0
463 1 25.8571 15.6782 0
464 1 26.4137 16.6423 0
465 1 26.9703 15.6782 0
466 1 27.5269 16.6423 0
467 1 28.0835 15.6782 0
468 1 28.6401 16.6423 0
469 1 0.253433 17.6063 0
470 1 0.810034 18.5704 0
471 1 1.36663 17.6063 0
472 1 1.92324 18.5704 0
473 1 2.47984 17.6063 0
474 1 3.03644 18.5704 0
475 1 3.59304 17.6063 0
476 1 4.14964 18.5704 0
477 1 4.70624 17.6063 0
478 1 5.26284 18.5704 0
479 1 5.81944 17.6063 0
480 1 6.37604 18.5704 0
481 1 6.93264 17.6063 0
482 1 7.48924 18.5704 0
483 1 8.04584 17.6063 0
484 1 8.60244 18.5704 0
485 1 9.15904 17.6063 0
486 1 9.71564 18.5704 0
487 1 10.2722 17.6063 0
488 1 10.8288 18.5704 0
489 1 11.3854 17.6063 0
490 1 11.942 18.5704 0
491 1 12.4986 17.6063 0
492 1 13.0552 18.5704 0
493 1 13.6118 17.6063 0
494 1 14.1684 18.5704 0
495 1 14.7251 17.6063 0
496 1 15.2817 18.5704 0
497 1 15.8383 17.6063 0
498 1 16.3949 18.5704 0
499 1 16.9515 17.6063 0
500 1 17.5081 18.5704 0
501 1 18.0647 17.6063 0
502 1 18.6213 18.5704 0
503 1 19.1779 17.6063 0
504 1 19.7345 18.5704 0
505 1 20.2911 17.6063 0
506 1 20.8477 18.5704 0
507 1 21.4043 17.6063 0
508 1 21.9609 18.5704 0
509 1 22.5175 17.6063 0
510 1 23.0741 18.5704 0
511 1 23.6307 17.6063 0
512 1 24.1873 18.5704 0
513 1 24.7439 17.6063 0
514 1 25.3005 18.5704 0
515 1 25.8571 17.6063 0
516 1 26.4137 18.5704 0
517 1 26.9703 17.6063 0
518 1 27.5269 18.5704 0
519 1 28.0835 17.6063 0
520 1 28.6401 18.5704 0
521 1 0.253433 19.5345 0
522 1 0.810034 20.4985 0
523 1 1.36663 19.5345 0
524 1 1.92324 20.4985 0
525 1 2.47984 19.5345 0
526 1 3.03644 20.4985 0
527 1 3.59304 19.5345 0
528 1 4.14964 20.4985 0
529 1 4.70624 19.5345 0
530 1 5.26284 20.4985 0
531 1 5.81944 19.5345 0
532 1 6.37604 20.4985 0
533 1 6.93264 19.5345 0
534 1 7.48924 20.4985 0
535 1 8.04584 19.5345 0
536 1 8.60244 20.4985 0
537 1 9.15904 19.5345 0
538 1 9.71564 20.4985 0
539 1 10.2722 19.5345 0
540 1 10.8288 20.4985 0
541 1 11.3854 19.5345 0
542 1 11.942 20.4985 0
543 1 12.4986 19.5345 0
544 1 13.0552 20.4985 0
545 1 13.6118 19.5345 0
546 1 14.1684 20.4985 0
547 1 14.7251 19.5345 0
548 1 15.2817 20.4985 0
549 1 15.8383 19.5345 0
550 1 16.3949 20.4985 0
551 1 16.9515 19.5345 0
552 1 17.5081 20.4985 0
553 1 18.0647 19.5345 0
554 1 18.6213 20.4985 0
555 1 19.1779 19.5345 0
556 1 19.7345 20.4985 0
557 1 20.2911 19.5345 0
558 1 20.8477 20.4985 0
559 1 21.4043 19.5345 0
560 1 21.9609 20.4985 0
561 1 22.5175 19.5345 0
562 1 23.0741 20.4985 0
563 1 23.6307 19.5345 0
564 1 24.1873 20.4985 0
565 1 24.7439 19.5345 0
566 1 25.3005 20.4985 0
567 1 25.8571 19.5345 0
568 1 26.4137 20.4985 0
569 1 26.9703 19.5345 0
570 1 27.5269 20.4985 0
571 1 28.0835 19.5345 0
572 1 28.6401 20.4985 0
573 1 0.253433 21.4626 0
574 1 0.810034 22.4266 0
575 1 1.36663 21.4626 0
576 1 1.92324 22.4266 0
577 1 2.47984 21.4626 0
578 1 3.03644 22.4266 0
579 1 3.59304 21.4626 0
580 1 4.14964 22.4266 0
581 1 4.70624 21.4626 0
582 1 5.26284 22.4266 0
583 1 5.81944 21.4626 0
584 1 6.37604 22.4266 0
585 1 6.93264 21.4626 0
586 1 7.48924 22.4266 0
587 1 8.04584 21.4626 0
588 1 8.60244 22.4266 0
589 1 9.15904 21.4626 0
590 1 9.71564 22.4266 0
591 1 10.2722 21.4626 0
592 1 10.8288 22.4266 0
593 1 11.3854 21.4626 0
594 1 11.942 22.4266 0
595 1 12.4986 21.4626 0
596 1 13.0552 22.4266 0
597 1 13.6118 21.4626 0
598 1 14.1684 22.4266 0
599 1 14.7251 21.4626 0
600 1 15.2817 22.4266 0
601 1 15.8383 21.4626 0
602 1 16.3949 22.4266 0
603 1 16.9515 21.4626 0
604 1 17.5081 22.4266 0
605 1 18.0647 21.4626 0
606 1 18.6213 22.4266 0
607 1 19.1779 21.4626 0
608 1 19.7345 22.4266 0
609 1 20.2911 21.4626 0
610 1 20.8477 22.4266 0
611 1 21.4043 21.4626 0
612 1 21.9609 22.4266 0
613 1 22.5175 21.4626 0
614 1 23.0741 22.4266 0
615 1 23.6307 21.4626 0
616 1 24.1873 22.4266 0
617 1 24.7439 21.4626 0
618 1 25.3005 22.4266 0
619 1 25.8571 21.4626 0
620 1 26.4137 22.4266 0
621 1 26.9703 21.4626 0
622 1 27.5269 22.4266 0
623 1 28.0835 21.4626 0
624 1 28.6401 22.4266 0
625 1 0.253433 23.3907 0
626 1 0.810034 24.3548 0
627 1 1.36663 23.3907 0
628 1 1.92324 24.3548 0
629 1 2.47984 23.3907 0
630 1 3.03644 24.3548 0
631 1 3.59304 23.3907 0
632 1 4.14964 24.3548 0
633 1 4.70624 23.3907 0
634 1 5.26284 24.3548 0
635 1 5.81944 23.3907 0
636 1 6.37604 24.3548 0
637 1 6.93264 23.3907 0
638 1 7.48924 24.3548 0
639 1 8.04584 23.3907 0
640 1 8.60244 24.3548 0
641 1 9.15904 23.3907 0
642 1 9.71564 24.3548 0
643 1 10.2722 23.3907 0
644 1 10.8288 24.3548 0
645 1 11.3854 23.3907 0
646 1 11.942 24.3548 0
647 1 12.4986 23.3907 0
648 1 13.0552 24.3548 0
649 1 13.6118 23.3907 0
650 1 14.1684 24.3548 0
651 1 14.7251 23.3907 0
652 1 15.2817 24.3548 0
653 1 15.8383 23.3907 0
654 1 16.3949 24.3548 0
655 1 16.9515 23.3907 0
656 1 17.5081 24.3548 0
657 1 18.0647 23.3907 0
658 1 18.6213 24.3548 0
659 1 19.1779 23.3907 0
660 1 19.7345 24.3548 0
661 1 20.2911 23.3907 0
662 1 20.8477 24.3548 0
663 1 21.4043 23.3907 0
664 1 21.9609 24.3548 0
665 1 22.5175 23.3907 0
666 1 23.0741 24.3548 0
667 1 23.6307 23.3907 0
668 1 24.1873 24.3548 0
669 1 24.7439 23.3907 0
670 1 25.3005 24.3548 0
671 1 25.8571 23.3907 0
672 1 26.4137 24.3548 0
673 1 26.9703 23.3907 0
674 1 27.5269 24.3548 0
675 1 28.0835 23.3907 0
676 1 28.6401 24.3548 0
677 1 0.253433 25.3188 0
678 1 0.810034 26.2829 0
679 1 1.36663 25.3188 0
680 1 1.92324 26.2829 0
681 1 2.47984 25.3188 0
682 1 3.03644 26.2829 0
683 1 3.59304 25.3188 0
684 1 4.14964 26.2829 0
685 1 4.70624 25.3188 0
686 1 5.26284 26.2829 0
687 1 5.81944 25.3188 0
688 1 6.37604 26.2829 0
689 1 6.93264 25.3188 0
690 1 7.48924 26.2829 0
691 1 8.04584 25.3188 0
692 1 8.60244 26.2829 0
693 1 9.15904 25.3188 0
694 1 9.71564 26.2829 0
695 1 10.2722 25.3188 0
696 1 10.8288 26.2829 0
697 1 11.3854 25.3188 0
698 1 11.942 26.2829 0
699 1 12.4986 25.3188 0
700 1 13.0552 26.2829 0
701 1 13.6118 25.3188 0
702 1 14.1684 26.2829 0
703 1 14.7251 25.3188 0
704 1 15.2817 26.2829 0
705 1 15.8383 25.3188 0
706 1 16.3949 26.2829 0
707 1 16.9515 25.3188 0
708 1 17.5081 26.2829 0
709 1 18.0647 25.3188 0
710 1 18.6213 26.2829 0
711 1 19.1779 25.3188 0
712 1 19.7345 26.2829 0
713 1 20.2911 25.3188 0
714 1 20.8477 26.2829 0
715 1 21.4043 25.3188 0
716 1 21.9609 26.2829 0
717 1 22.5175 25.3188 0
718 1 23.0741 26.2829 0
719 1 23.6307 25.3188 0
720 1 24.1873 26.2829 0
721 1 24.7439 25.3188 0
722 1 25.3005 26.2829 0
723 1 25.8571 25.3188 0
724 1 26.4137 26.2829 0
725 1 26.9703 25.3188 0
726 1 27.5269 26.2829 0
727 1 28.0835 25.3188 0
728 1 28.6401 26.2829 0
729 1 0.253433 27.2469 0
730 1 0.810034 28.211 0
731 1 1.36663 27.2469 0
732 1 1.92324 28.211 0
733 1 2.47984 27.2469 0
734 1 3.03644 28.211 0
735 1 3.59304 27.2469 0
736 1 4.14964 28.211 0
737 1 4.70624 27.2469 0
738 1 5.26284 28.211 0
739 1 5.81944 27.2469 0
740 1 6.37604 28.211 0
741 1 6.93264 27.2469 0
742 1 7.48924 28.211 0
743 1 8.04584 27.2469 0
744 1 8.60244 28.211 0
745 1 9.15904 27.2469 0
746 1 9.71564 28.211 0
747 1 10.2722 27.2469 0
748 1 10.8288 28.211 0
749 1 11.3854 27.2469 0
750 1 11.942 28.211 0
751 1 12.4986 27.2469 0
752 1 13.0552 28.211 0
753 1 13.6118 27.2469 0
754 1 14.1684 28.211 0
755 1 14.7251 27.2469 0
756 1 15.2817 28.211 0
757 1 15.8383 27.2469 0
758 1 16.3949 28.211 0
759 1 16.9515 27.2469 0
760 1 17.5081 28.211 0
761 1 18.0647 27.2469 0
762 1 18.6213 28.211 0
763 1 19.1779 27.2469 0
764 1 19.7345 28.211 0
765 1 20.2911 27.2469 0
766 1 20.8477 28.211 0
767 1 21.4043 27.2469 0
768 1 21.9609 28.211 0
769 1 22.5175 27.2469 0
770 1 23.0741 28.211 0
771 1 23.6307 27.2469 0
772 1 24.1873 28.211 0
773 1 24.7439 27.2469 0
774 1 25.3005 28.211 0
775 1 25.8571 27.2469 0
776 1 26.4137 28.211 0
777 1 26.9703 27.2469 0
778 1 27.5269 28.211 0
779 1 28.0835 27.2469 0
780 1 28.6401 28.211 0
