ITEM: TIMESTEP
32
ITEM: NUMBER OF ATOMS
1024
ITEM: BOX BOUNDS pp pp ff
-9.7442314635591420e-01 6.9134423146355928e+01
-5.6258361717301064e-01 3.9914777617173051e+01
-2.0000000000000000e+01 2.0000000000000000e+01
ITEM: ATOMS id type x y z
1 1 69.1344 -0.562584 0
2 1 0.486178 -0.562584 0
3 1 1.21648 0.702334 0
4 1 2.67708 0.702334 0
5 1 69.1344 1.96725 0
6 1 0.486178 1.96725 0
7 1 1.21648 3.23217 0
8 1 2.67708 3.23217 0
9 1 69.1344 4.49709 0
10 1 0.486178 4.49709 0
11 1 1.21648 5.762 0
12 1 2.67708 5.762 0
13 1 -0.974423 7.02692 0
14 1 0.486178 7.02692 0
15 1 1.21648 8.29184 0
16 1 2.67708 8.29184 0
17 1 -0.974423 9.55676 0
18 1 0.486178 9.55676 0
19 1 1.21648 10.8217 0
20 1 2.67708 10.8217 0
21 1 69.1344 12.0866 0
22 1 0.486178 12.0866 0
23 1 1.21648 13.3515 0
24 1 2.67708 13.3515 0
25 1 69.1344 14.6164 0
26 1 0.486178 14.6164 0
27 1 1.21648 15.8813 0
28 1 2.67708 15.8813 0
29 1 69.1344 17.1463 0
30 1 0.486178 17.1463 0
31 1 1.21648 18.4112 0
32 1 2.67708 18.4112 0
33 1 69.1344 19.6761 0
34 1 0.486178 19.6761 0
35 1 1.21648 20.941 0
36 1 2.67708 20.941 0
37 1 69.1344 22.2059 0
38 1 0.486178 22.2059 0
39 1 1.21648 23.4708 0
40 1 2.67708 23.4708 0
41 1 -0.974423 24.7358 0
42 1 0.486178 24.7358 0
43 1 1.21648 26.0007 0
44 1 2.67708 26.0007 0
45 1 -0.974423 27.2656 0
46 1 0.486178 27.2656 0
47 1 1.21648 28.5305 0
48 1 2.67708 28.5305 0
49 1 69.1344 29.7954 0
50 1 0.486178 29.7954 0
51 1 1.21648 31.0604 0
52 1 2.67708 31.0604 0
53 1 69.1344 32.3253 0
54 1 0.486178 32.3253 0
55 1 1.21648 33.5902 0
56 1 2.67708 33.5902 0
57 1 69.1344 34.8551 0
58 1 0.486178 34.8551 0
59 1 1.21648 36.12 0
60 1 2.67708 36.12 0
61 1 69.1344 37.3849 0
62 1 0.486178 37.3849 0
63 1 1.21648 38.6499 0
64 1 2.67708 38.6499 0
65 1 3.40738 -0.562584 0
66 1 4.86798 -0.562584 0
67 1 5.59828 0.702334 0
68 1 7.05888 0.702334 0
69 1 3.40738 1.96725 0
70 1 4.86798 1.96725 0
71 1 5.59828 3.23217 0
72 1 7.05888 3.23217 0
73 1 3.40738 4.49709 0
74 1 4.86798 4.49709 0
75 1 5.59828 5.762 0
76 1 7.05888 5.762 0
77 1 3.40738 7.02692 0
78 1 4.86798 7.02692 0
79 1 5.59828 8.29184 0
80 1 7.05888 8.29184 0
81 1 3.40738 9.55676 0
82 1 4.86798 9.55676 0
83 1 5.59828 10.8217 0
84 1 7.05888 10.8217 0
85 1 3.40738 12.0866 0
86 1 4.86798 12.0866 0
87 1 5.59828 13.3515 0
88 1 7.05888 13.3515 0
89 1 3.40738 14.6164 0
90 1 4.86798 14.6164 0
91 1 5.59828 15.8813 0
92 1 7.05888 15.8813 0
93 1 3.40738 17.1463 0
94 1 4.86798 17.1463 0
95 1 5.59828 18.4112 0
96 1 7.05888 18.4112 0
97 1 3.40738 19.6761 0
98 1 4.86798 19.6761 0
99 1 5.59828 20.941 0
100 1 7.05888 20.941 0
101 1 3.40738 22.2059 0
102 1 4.86798 22.2059 0
103 1 5.59828 23.4708 0
104 1 7.05888 23.4708 0
105 1 3.40738 24.7358 0
106 1 4.86798 24.7358 0
107 1 5.59828 26.0007 0
108 1 7.05888 26.0007 0
109 1 3.40738 27.2656 0
110 1 4.86798 27.2656 0
111 1 5.59828 28.5305 0
112 1 7.05888 28.5305 0
113 1 3.40738 29.7954 0
114 1 4.86798 29.7954 0
115 1 5.59828 31.0604 0
116 1 7.05888 31.0604 0
117 1 3.40738 32.3253 0
118 1 4.86798 32.3253 0
119 1 5.59828 33.5902 0
120 1 7.05888 33.5902 0
121 1 3.40738 34.8551 0
122 1 4.86798 34.8551 0
123 1 5.59828 36.12 0
124 1 7.05888 36.12 0
125 1 3.40738 37.3849 0
126 1 4.86798 37.3849 0
127 1 5.59828 38.6499 0
128 1 7.05888 38.6499 0
129 1 7.78918 -0.562584 0
130 1 9.24978 -0.562584 0
131 1 9.98008 0.702334 0
132 1 11.4407 0.702334 0
133 1 7.78918 1.96725 0
134 1 9.24978 1.96725 0
135 1 9.98008 3.23217 0
136 1 11.4407 3.23217 0
137 1 7.78918 4.49709 0
138 1 9.24978 4.49709 0
139 1 9.98008 5.762 0
140 1 11.4407 5.762 0
141 1 7.78918 7.02692 0
142 1 9.24978 7.02692 0
143 1 9.98008 8.29184 0
144 1 11.4407 8.29184 0
145 1 7.78918 9.55676 0
146 1 9.24978 9.55676 0
147 1 9.98008 10.8217 0
148 1 11.4407 10.8217 0
149 1 7.78918 12.0866 0
150 1 9.24978 12.0866 0
151 1 9.98008 13.3515 0
152 1 11.4407 13.3515 0
153 1 7.78918 14.6164 0
154 1 9.24978 14.6164 0
155 1 9.98008 15.8813 0
156 1 11.4407 15.8813 0
157 1 7.78918 17.1463 0
158 1 9.24978 17.1463 0
159 1 9.98008 18.4112 0
160 1 11.4407 18.4112 0
161 1 7.78918 19.6761 0
162 1 9.24978 19.6761 0
163 1 9.98008 20.941 0
164 1 11.4407 20.941 0
165 1 7.78918 22.2059 0
166 1 9.24978 22.2059 0
167 1 9.98008 23.4708 0
168 1 11.4407 23.4708 0
169 1 7.78918 24.7358 0
170 1 9.24978 24.7358 0
171 1 9.98008 26.0007 0
172 1 11.4407 26.0007 0
173 1 7.78918 27.2656 0
174 1 9.24978 27.2656 0
175 1 9.98008 28.5305 0
176 1 11.4407 28.5305 0
177 1 7.78918 29.7954 0
178 1 9.24978 29.7954 0
179 1 9.98008 31.0604 0
180 1 11.4407 31.0604 0
181 1 7.78918 32.3253 0
182 1 9.24978 32.3253 0
183 1 9.98008 33.5902 0
184 1 11.4407 33.5902 0
185 1 7.78918 34.8551 0
186 1 9.24978 34.8551 0
187 1 9.98008 36.12 0
188 1 11.4407 36.12 0
189 1 7.78918 37.3849 0
190 1 9.24978 37.3849 0
191 1 9.98008 38.6499 0
192 1 11.4407 38.6499 0
193 1 12.171 -0.562584 0
194 1 13.6316 -0.562584 0
195 1 14.3619 0.702334 0
196 1 15.8225 0.702334 0
197 1 12.171 1.96725 0
198 1 13.6316 1.96725 0
199 1 14.3619 3.23217 0
200 1 15.8225 3.23217 0
201 1 12.171 4.49709 0
202 1 13.6316 4.49709 0
203 1 14.3619 5.762 0
204 1 15.8225 5.762 0
205 1 12.171 7.02692 0
206 1 13.6316 7.02692 0
207 1 14.3619 8.29184 0
208 1 15.8225 8.29184 0
209 1 12.171 9.55676 0
210 1 13.6316 9.55676 0
211 1 14.3619 10.8217 0
212 1 15.8225 10.8217 0
213 1 12.171 12.0866 0
214 1 13.6316 12.0866 0
215 1 14.3619 13.3515 0
216 1 15.8225 13.3515 0
217 1 12.171 14.6164 0
218 1 13.6316 14.6164 0
219 1 14.3619 15.8813 0
220 1 15.8225 15.8813 0
221 1 12.171 17.1463 0
222 1 13.6316 17.1463 0
223 1 14.3619 18.4112 0
224 1 15.8225 18.4112 0
225 1 12.171 19.6761 0
226 1 13.6316 19.6761 0
227 1 14.3619 20.941 0
228 1 15.8225 20.941 0
229 1 12.171 22.2059 0
230 1 13.6316 22.2059 0
231 1 14.3619 23.4708 0
232 1 15.8225 23.4708 0
233 1 12.171 24.7358 0
234 1 13.6316 24.7358 0
235 1 14.3619 26.0007 0
236 1 15.8225 26.0007 0
237 1 12.171 27.2656 0
238 1 13.6316 27.2656 0
239 1 14.3619 28.5305 0
240 1 15.8225 28.5305 0
241 1 12.171 29.7954 0
242 1 13.6316 29.7954 0
243 1 14.3619 31.0604 0
244 1 15.8225 31.0604 0
245 1 12.171 32.3253 0
246 1 13.6316 32.3253 0
247 1 14.3619 33.5902 0
248 1 15.8225 33.5902 0
249 1 12.171 34.8551 0
250 1 13.6316 34.8551 0
251 1 14.3619 36.12 0
252 1 15.8225 36.12 0
253 1 12.171 37.3849 0
254 1 13.6316 37.3849 0
255 1 14.3619 38.6499 0
256 1 15.8225 38.6499 0
257 1 16.5528 -0.562584 0
258 1 18.0134 -0.562584 0
259 1 18.7437 0.702334 0
260 1 20.2043 0.702334 0
261 1 16.5528 1.96725 0
262 1 18.0134 1.96725 0
263 1 18.7437 3.23217 0
264 1 20.2043 3.23217 0
265 1 16.5528 4.49709 0
266 1 18.0134 4.49709 0
267 1 18.7437 5.762 0
268 1 20.2043 5.762 0
269 1 16.5528 7.02692 0
270 1 18.0134 7.02692 0
271 1 18.7437 8.29184 0
272 1 20.2043 8.29184 0
273 1 16.5528 9.55676 0
274 1 18.0134 9.55676 0
275 1 18.7437 10.8217 0
276 1 20.2043 10.8217 0
277 1 16.5528 12.0866 0
278 1 18.0134 12.0866 0
279 1 18.7437 13.3515 0
280 1 20.2043 13.3515 0
281 1 16.5528 14.6164 0
282 1 18.0134 14.6164 0
283 1 18.7437 15.8813 0
284 1 20.2043 15.8813 0
285 1 16.5528 17.1463 0
286 1 18.0134 17.1463 0
287 1 18.7437 18.4112 0
288 1 20.2043 18.4112 0
289 1 16.5528 19.6761 0
290 1 18.0134 19.6761 0
291 1 18.7437 20.941 0
292 1 20.2043 20.941 0
293 1 16.5528 22.2059 0
294 1 18.0134 22.2059 0
295 1 18.7437 23.4708 0
296 1 20.2043 23.4708 0
297 1 16.5528 24.7358 0
298 1 18.0134 24.7358 0
299 1 18.7437 26.0007 0
300 1 20.2043 26.0007 0
301 1 16.5528 27.2656 0
302 1 18.0134 27.2656 0
303 1 18.7437 28.5305 0
304 1 20.2043 28.5305 0
305 1 16.5528 29.7954 0
306 1 18.0134 29.7954 0
307 1 18.7437 31.0604 0
308 1 20.2043 31.0604 0
309 1 16.5528 32.3253 0
310 1 18.0134 32.3253 0
311 1 18.7437 33.5902 0
312 1 20.2043 33.5902 0
313 1 16.5528 34.8551 0
314 1 18.0134 34.8551 0
315 1 18.7437 36.12 0
316 1 20.2043 36.12 0
317 1 16.5528 37.3849 0
318 1 18.0134 37.3849 0
319 1 18.7437 38.6499 0
320 1 20.2043 38.6499 0
321 1 20.9346 -0.562584 0
322 1 22.3952 -0.562584 0
323 1 23.1255 0.702334 0
324 1 24.5861 0.702334 0
325 1 20.9346 1.96725 0
326 1 22.3952 1.96725 0
327 1 23.1255 3.23217 0
328 1 24.5861 3.23217 0
329 1 20.9346 4.49709 0
330 1 22.3952 4.49709 0
331 1 23.1255 5.762 0
332 1 24.5861 5.762 0
333 1 20.9346 7.02692 0
334 1 22.3952 7.02692 0
335 1 23.1255 8.29184 0
336 1 24.5861 8.29184 0
337 1 20.9346 9.55676 0
338 1 22.3952 9.55676 0
339 1 23.1255 10.8217 0
340 1 24.5861 10.8217 0
341 1 20.9346 12.0866 0
342 1 22.3952 12.0866 0
343 1 23.1255 13.3515 0
344 1 24.5861 13.3515 0
345 1 20.9346 14.6164 0
346 1 22.3952 14.6164 0
347 1 23.1255 15.8813 0
348 1 24.5861 15.8813 0
349 1 20.9346 17.1463 0
350 1 22.3952 17.1463 0
351 1 23.1255 18.4112 0
352 1 24.5861 18.4112 0
353 1 20.9346 19.6761 0
354 1 22.3952 19.6761 0
355 1 23.1255 20.941 0
356 1 24.5861 20.941 0
357 1 20.9346 22.2059 0
358 1 22.3952 22.2059 0
359 1 23.1255 23.4708 0
360 1 24.5861 23.4708 0
361 1 20.9346 24.7358 0
362 1 22.3952 24.7358 0
363 1 23.1255 26.0007 0
364 1 24.5861 26.0007 0
365 1 20.9346 27.2656 0
366 1 22.3952 27.2656 0
367 1 23.1255 28.5305 0
368 1 24.5861 28.5305 0
369 1 20.9346 29.7954 0
370 1 22.3952 29.7954 0
371 1 23.1255 31.0604 0
372 1 24.5861 31.0604 0
373 1 20.9346 32.3253 0
374 1 22.3952 32.3253 0
375 1 23.1255 33.5902 0
376 1 24.5861 33.5902 0
377 1 20.9346 34.8551 0
378 1 22.3952 34.8551 0
379 1 23.1255 36.12 0
380 1 24.5861 36.12 0
381 1 20.9346 37.3849 0
382 1 22.3952 37.3849 0
383 1 23.1255 38.6499 0
384 1 24.5861 38.6499 0
385 1 25.3164 -0.562584 0
386 1 26.777 -0.562584 0
387 1 27.5073 0.702334 0
388 1 28.9679 0.702334 0
389 1 25.3164 1.96725 0
390 1 26.777 1.96725 0
391 1 27.5073 3.23217 0
392 1 28.9679 3.23217 0
393 1 25.3164 4.49709 0
394 1 26.777 4.49709 0
395 1 27.5073 5.762 0
396 1 28.9679 5.762 0
397 1 25.3164 7.02692 0
398 1 26.777 7.02692 0
399 1 27.5073 8.29184 0
400 1 28.9679 8.29184 0
401 1 25.3164 9.55676 0
402 1 26.777 9.55676 0
403 1 27.5073 10.8217 0
404 1 28.9679 10.8217 0
405 1 25.3164 12.0866 0
406 1 26.777 12.0866 0
407 1 27.5073 13.3515 0
408 1 28.9679 13.3515 0
409 1 25.3164 14.6164 0
410 1 26.777 14.6164 0
411 1 27.5073 15.8813 0
412 1 28.9679 15.8813 0
413 1 25.3164 17.1463 0
414 1 26.777 17.1463 0
415 1 27.5073 18.4112 0
416 1 28.9679 18.4112 0
417 1 25.3164 19.6761 0
418 1 26.777 19.6761 0
419 1 27.5073 20.941 0
420 1 28.9679 20.941 0
421 1 25.3164 22.2059 0
422 1 26.777 22.2059 0
423 1 27.5073 23.4708 0
424 1 28.9679 23.4708 0
425 1 25.3164 24.7358 0
426 1 26.777 24.7358 0
427 1 27.5073 26.0007 0
428 1 28.9679 26.0007 0
429 1 25.3164 27.2656 0
430 1 26.777 27.2656 0
431 1 27.5073 28.5305 0
432 1 28.9679 28.5305 0
433 1 25.3164 29.7954 0
434 1 26.777 29.7954 0
435 1 27.5073 31.0604 0
436 1 28.9679 31.0604 0
437 1 25.3164 32.3253 0
438 1 26.777 32.3253 0
439 1 27.5073 33.5902 0
440 1 28.9679 33.5902 0
441 1 25.3164 34.8551 0
442 1 26.777 34.8551 0
443 1 27.5073 36.12 0
444 1 28.9679 36.12 0
445 1 25.3164 37.3849 0
446 1 26.777 37.3849 0
447 1 27.5073 38.6499 0
448 1 28.9679 38.6499 0
449 1 29.6982 -0.562584 0
450 1 31.1588 -0.562584 0
451 1 31.8891 0.702334 0
452 1 33.3497 0.702334 0
453 1 29.6982 1.96725 0
454 1 31.1588 1.96725 0
455 1 31.8891 3.23217 0
456 1 33.3497 3.23217 0
457 1 29.6982 4.49709 0
458 1 31.1588 4.49709 0
459 1 31.8891 5.762 0
460 1 33.3497 5.762 0
461 1 29.6982 7.02692 0
462 1 31.1588 7.02692 0
463 1 31.8891 8.29184 0
464 1 33.3497 8.29184 0
465 1 29.6982 9.55676 0
466 1 31.1588 9.55676 0
467 1 31.8891 10.8217 0
468 1 33.3497 10.8217 0
469 1 29.6982 12.0866 0
470 1 31.1588 12.0866 0
471 1 31.8891 13.3515 0
472 1 33.3497 13.3515 0
473 1 29.6982 14.6164 0
474 1 31.1588 14.6164 0
475 1 31.8891 15.8813 0
476 1 33.3497 15.8813 0
477 1 29.6982 17.1463 0
478 1 31.1588 17.1463 0
479 1 31.8891 18.4112 0
480 1 33.3497 18.4112 0
481 1 29.6982 19.6761 0
482 1 31.1588 19.6761 0
483 1 31.8891 20.941 0
484 1 33.3497 20.941 0
485 1 29.6982 22.2059 0
486 1 31.1588 22.2059 0
487 1 31.8891 23.4708 0
488 1 33.3497 23.4708 0
489 1 29.6982 24.7358 0
490 1 31.1588 24.7358 0
491 1 31.8891 26.0007 0
492 1 33.3497 26.0007 0
493 1 29.6982 27.2656 0
494 1 31.1588 27.2656 0
495 1 31.8891 28.5305 0
496 1 33.3497 28.5305 0
497 1 29.6982 29.7954 0
498 1 31.1588 29.7954 0
499 1 31.8891 31.0604 0
500 1 33.3497 31.0604 0
501 1 29.6982 32.3253 0
502 1 31.1588 32.3253 0
503 1 31.8891 33.5902 0
504 1 33.3497 33.5902 0
505 1 29.6982 34.8551 0
506 1 31.1588 34.8551 0
507 1 31.8891 36.12 0
508 1 33.3497 36.12 0
509 1 29.6982 37.3849 0
510 1 31.1588 37.3849 0
511 1 31.8891 38.6499 0
512 1 33.3497 38.6499 0
513 1 34.08 -0.562584 0
514 1 35.5406 -0.562584 0
515 1 36.2709 0.702334 0
516 1 37.7315 0.702334 0
517 1 34.08 1.96725 0
518 1 35.5406 1.96725 0
519 1 36.2709 3.23217 0
520 1 37.7315 3.23217 0
521 1 34.08 4.49709 0
522 1 35.5406 4.49709 0
523 1 36.2709 5.762 0
524 1 37.7315 5.762 0
525 1 34.08 7.02692 0
526 1 35.5406 7.02692 0
527 1 36.2709 8.29184 0
528 1 37.7315 8.29184 0
529 1 34.08 9.55676 0
530 1 35.5406 9.55676 0
531 1 36.2709 10.8217 0
532 1 37.7315 10.8217 0
533 1 34.08 12.0866 0
534 1 35.5406 12.0866 0
535 1 36.2709 13.3515 0
536 1 37.7315 13.3515 0
537 1 34.08 14.6164 0
538 1 35.5406 14.6164 0
539 1 36.2709 15.8813 0
540 1 37.7315 15.8813 0
541 1 34.08 17.1463 0
542 1 35.5406 17.1463 0
543 1 36.2709 18.4112 0
544 1 37.7315 18.4112 0
545 1 34.08 19.6761 0
546 1 35.5406 19.6761 0
547 1 36.2709 20.941 0
548 1 37.7315 20.941 0
549 1 34.08 22.2059 0
550 1 35.5406 22.2059 0
551 1 36.2709 23.4708 0
552 1 37.7315 23.4708 0
553 1 34.08 24.7358 0
554 1 35.5406 24.7358 0
555 1 36.2709 26.0007 0
556 1 37.7315 26.0007 0
557 1 34.08 27.2656 0
558 1 35.5406 27.2656 0
559 1 36.2709 28.5305 0
560 1 37.7315 28.5305 0
561 1 34.08 29.7954 0
562 1 35.5406 29.7954 0
563 1 36.2709 31.0604 0
564 1 37.7315 31.0604 0
565 1 34.08 32.3253 0
566 1 35.5406 32.3253 0
567 1 36.2709 33.5902 0
568 1 37.7315 33.5902 0
569 1 34.08 34.8551 0
570 1 35.5406 34.8551 0
571 1 36.2709 36.12 0
572 1 37.7315 36.12 0
573 1 34.08 37.3849 0
574 1 35.5406 37.3849 0
575 1 36.2709 38.6499 0
576 1 37.7315 38.6499 0
577 1 38.4618 -0.562584 0
578 1 39.9224 -0.562584 0
579 1 40.6527 0.702334 0
580 1 42.1133 0.702334 0
581 1 38.4618 1.96725 0
582 1 39.9224 1.96725 0
583 1 40.6527 3.23217 0
584 1 42.1133 3.23217 0
585 1 38.4618 4.49709 0
586 1 39.9224 4.49709 0
587 1 40.6527 5.762 0
588 1 42.1133 5.762 0
589 1 38.4618 7.02692 0
590 1 39.9224 7.02692 0
591 1 40.6527 8.29184 0
592 1 42.1133 8.29184 0
593 1 38.4618 9.55676 0
594 1 39.9224 9.55676 0
595 1 40.6527 10.8217 0
596 1 42.1133 10.8217 0
597 1 38.4618 12.0866 0
598 1 39.9224 12.0866 0
599 1 40.6527 13.3515 0
600 1 42.1133 13.3515 0
601 1 38.4618 14.6164 0
602 1 39.9224 14.6164 0
603 1 40.6527 15.8813 0
604 1 42.1133 15.8813 0
605 1 38.4618 17.1463 0
606 1 39.9224 17.1463 0
607 1 40.6527 18.4112 0
608 1 42.1133 18.4112 0
609 1 38.4618 19.6761 0
610 1 39.9224 19.6761 0
611 1 40.6527 20.941 0
612 1 42.1133 20.941 0
613 1 38.4618 22.2059 0
614 1 39.9224 22.2059 0
615 1 40.6527 23.4708 0
616 1 42.1133 23.4708 0
617 1 38.4618 24.7358 0
618 1 39.9224 24.7358 0
619 1 40.6527 26.0007 0
620 1 42.1133 26.0007 0
621 1 38.4618 27.2656 0
622 1 39.9224 27.2656 0
623 1 40.6527 28.5305 0
624 1 42.1133 28.5305 0
625 1 38.4618 29.7954 0
626 1 39.9224 29.7954 0
627 1 40.6527 31.0604 0
628 1 42.1133 31.0604 0
629 1 38.4618 32.3253 0
630 1 39.9224 32.3253 0
631 1 40.6527 33.5902 0
632 1 42.1133 33.5902 0
633 1 38.4618 34.8551 0
634 1 39.9224 34.8551 0
635 1 40.6527 36.12 0
636 1 42.1133 36.12 0
637 1 38.4618 37.3849 0
638 1 39.9224 37.3849 0
639 1 40.6527 38.6499 0
640 1 42.1133 38.6499 0
641 1 42.8436 -0.562584 0
642 1 44.3042 -0.562584 0
643 1 45.0345 0.702334 0
644 1 46.4951 0.702334 0
645 1 42.8436 1.96725 0
646 1 44.3042 1.96725 0
647 1 45.0345 3.23217 0
648 1 46.4951 3.23217 0
649 1 42.8436 4.49709 0
650 1 44.3042 4.49709 0
651 1 45.0345 5.762 0
652 1 46.4951 5.762 0
653 1 42.8436 7.02692 0
654 1 44.3042 7.02692 0
655 1 45.0345 8.29184 0
656 1 46.4951 8.29184 0
657 1 42.8436 9.55676 0
658 1 44.3042 9.55676 0
659 1 45.0345 10.8217 0
660 1 46.4951 10.8217 0
661 1 42.8436 12.0866 0
662 1 44.3042 12.0866 0
663 1 45.0345 13.3515 0
664 1 46.4951 13.3515 0
665 1 42.8436 14.6164 0
666 1 44.3042 14.6164 0
667 1 45.0345 15.8813 0
668 1 46.4951 15.8813 0
669 1 42.8436 17.1463 0
670 1 44.3042 17.1463 0
671 1 45.0345 18.4112 0
672 1 46.4951 18.4112 0
673 1 42.8436 19.6761 0
674 1 44.3042 19.6761 0
675 1 45.0345 20.941 0
676 1 46.4951 20.941 0
677 1 42.8436 22.2059 0
678 1 44.3042 22.2059 0
679 1 45.0345 23.4708 0
680 1 46.4951 23.4708 0
681 1 42.8436 24.7358 0
682 1 44.3042 24.7358 0
683 1 45.0345 26.0007 0
684 1 46.4951 26.0007 0
685 1 42.8436 27.2656 0
686 1 44.3042 27.2656 0
687 1 45.0345 28.5305 0
688 1 46.4951 28.5305 0
689 1 42.8436 29.7954 0
690 1 44.3042 29.7954 0
691 1 45.0345 31.0604 0
692 1 46.4951 31.0604 0
693 1 42.8436 32.3253 0
694 1 44.3042 32.3253 0
695 1 45.0345 33.5902 0
696 1 46.4951 33.5902 0
697 1 42.8436 34.8551 0
698 1 44.3042 34.8551 0
699 1 45.0345 36.12 0
700 1 46.4951 36.12 0
701 1 42.8436 37.3849 0
702 1 44.3042 37.3849 0
703 1 45.0345 38.6499 0
704 1 46.4951 38.6499 0
705 1 47.2254 -0.562584 0
706 1 48.686 -0.562584 0
707 1 49.4163 0.702334 0
708 1 50.8769 0.702334 0
709 1 47.2254 1.96725 0
710 1 48.686 1.96725 0
711 1 49.4163 3.23217 0
712 1 50.8769 3.23217 0
713 1 47.2254 4.49709 0
714 1 48.686 4.49709 0
715 1 49.4163 5.762 0
716 1 50.8769 5.762 0
717 1 47.2254 7.02692 0
718 1 48.686 7.02692 0
719 1 49.4163 8.29184 0
720 1 50.8769 8.29184 0
721 1 47.2254 9.55676 0
722 1 48.686 9.55676 0
723 1 49.4163 10.8217 0
724 1 50.8769 10.8217 0
725 1 47.2254 12.0866 0
726 1 48.686 12.0866 0
727 1 49.4163 13.3515 0
728 1 50.8769 13.3515 0
729 1 47.2254 14.6164 0
730 1 48.686 14.6164 0
731 1 49.4163 15.8813 0
732 1 50.8769 15.8813 0
733 1 47.2254 17.1463 0
734 1 48.686 17.1463 0
735 1 49.4163 18.4112 0
736 1 50.8769 18.4112 0
737 1 47.2254 19.6761 0
738 1 48.686 19.6761 0
739 1 49.4163 20.941 0
740 1 50.8769 20.941 0
741 1 47.2254 22.2059 0
742 1 48.686 22.2059 0
743 1 49.4163 23.4708 0
744 1 50.8769 23.4708 0
745 1 47.2254 24.7358 0
746 1 48.686 24.7358 0
747 1 49.4163 26.0007 0
748 1 50.8769 26.0007 0
749 1 47.2254 27.2656 0
750 1 48.686 27.2656 0
751 1 49.4163 28.5305 0
752 1 50.8769 28.5305 0
753 1 47.2254 29.7954 0
754 1 48.686 29.7954 0
755 1 49.4163 31.0604 0
756 1 50.8769 31.0604 0
757 1 47.2254 32.3253 0
758 1 48.686 32.3253 0
759 1 49.4163 33.5902 0
760 1 50.8769 33.5902 0
761 1 47.2254 34.8551 0
762 1 48.686 34.8551 0
763 1 49.4163 36.12 0
764 1 50.8769 36.12 0
765 1 47.2254 37.3849 0
766 1 48.686 37.3849 0
767 1 49.4163 38.6499 0
768 1 50.8769 38.6499 0
769 1 51.6072 -0.562584 0
770 1 53.0678 -0.562584 0
771 1 53.7981 0.702334 0
772 1 55.2587 0.702334 0
773 1 51.6072 1.96725 0
774 1 53.0678 1.96725 0
775 1 53.7981 3.23217 0
776 1 55.2587 3.23217 0
777 1 51.6072 4.49709 0
778 1 53.0678 4.49709 0
779 1 53.7981 5.762 0
780 1 55.2587 5.762 0
781 1 51.6072 7.02692 0
782 1 53.0678 7.02692 0
783 1 53.7981 8.29184 0
784 1 55.2587 8.29184 0
785 1 51.6072 9.55676 0
786 1 53.0678 9.55676 0
787 1 53.7981 10.8217 0
788 1 55.2587 10.8217 0
789 1 51.6072 12.0866 0
790 1 53.0678 12.0866 0
791 1 53.7981 13.3515 0
792 1 55.2587 13.3515 0
793 1 51.6072 14.6164 0
794 1 53.0678 14.6164 0
795 1 53.7981 15.8813 0
796 1 55.2587 15.8813 0
797 1 51.6072 17.1463 0
798 1 53.0678 17.1463 0
799 1 53.7981 18.4112 0
800 1 55.2587 18.4112 0
801 1 51.6072 19.6761 0
802 1 53.0678 19.6761 0
803 1 53.7981 20.941 0
804 1 55.2587 20.941 0
805 1 51.6072 22.2059 0
806 1 53.0678 22.2059 0
807 1 53.7981 23.4708 0
808 1 55.2587 23.4708 0
809 1 51.6072 24.7358 0
810 1 53.0678 24.7358 0
811 1 53.7981 26.0007 0
812 1 55.2587 26.0007 0
813 1 51.6072 27.2656 0
814 1 53.0678 27.2656 0
815 1 53.7981 28.5305 0
816 1 55.2587 28.5305 0
817 1 51.6072 29.7954 0
818 1 53.0678 29.7954 0
819 1 53.7981 31.0604 0
820 1 55.2587 31.0604 0
821 1 51.6072 32.3253 0
822 1 53.0678 32.3253 0
823 1 53.7981 33.5902 0
824 1 55.2587 33.5902 0
825 1 51.6072 34.8551 0
826 1 53.0678 34.8551 0
827 1 53.7981 36.12 0
828 1 55.2587 36.12 0
829 1 51.6072 37.3849 0
830 1 53.0678 37.3849 0
831 1 53.7981 38.6499 0
832 1 55.2587 38.6499 0
833 1 55.989 -0.562584 0
834 1 57.4496 -0.562584 0
835 1 58.1799 0.702334 0
836 1 59.6405 0.702334 0
837 1 55.989 1.96725 0
838 1 57.4496 1.96725 0
839 1 58.1799 3.23217 0
840 1 59.6405 3.23217 0
841 1 55.989 4.49709 0
842 1 57.4496 4.49709 0
843 1 58.1799 5.762 0
844 1 59.6405 5.762 0
845 1 55.989 7.02692 0
846 1 57.4496 7.02692 0
847 1 58.1799 8.29184 0
848 1 59.6405 8.29184 0
849 1 55.989 9.55676 0
850 1 57.4496 9.55676 0
851 1 58.1799 10.8217 0
852 1 59.6405 10.8217 0
853 1 55.989 12.0866 0
854 1 57.4496 12.0866 0
855 1 58.1799 13.3515 0
856 1 59.6405 13.3515 0
857 1 55.989 14.6164 0
858 1 57.4496 14.6164 0
859 1 58.1799 15.8813 0
860 1 59.6405 15.8813 0
861 1 55.989 17.1463 0
862 1 57.4496 17.1463 0
863 1 58.1799 18.4112 0
864 1 59.6405 18.4112 0
865 1 55.989 19.6761 0
866 1 57.4496 19.6761 0
867 1 58.1799 20.941 0
868 1 59.6405 20.941 0
869 1 55.989 22.2059 0
870 1 57.4496 22.2059 0
871 1 58.1799 23.4708 0
872 1 59.6405 23.4708 0
873 1 55.989 24.7358 0
874 1 57.4496 24.7358 0
875 1 58.1799 26.0007 0
876 1 59.6405 26.0007 0
877 1 55.989 27.2656 0
878 1 57.4496 27.2656 0
879 1 58.1799 28.5305 0
880 1 59.6405 28.5305 0
881 1 55.989 29.7954 0
882 1 57.4496 29.7954 0
883 1 58.1799 31.0604 0
884 1 59.6405 31.0604 0
885 1 55.989 32.3253 0
886 1 57.4496 32.3253 0
887 1 58.1799 33.5902 0
888 1 59.6405 33.5902 0
889 1 55.989 34.8551 0
890 1 57.4496 34.8551 0
891 1 58.1799 36.12 0
892 1 59.6405 36.12 0
893 1 55.989 37.3849 0
894 1 57.4496 37.3849 0
895 1 58.1799 38.6499 0
896 1 59.6405 38.6499 0
897 1 60.3708 -0.562584 0
898 1 61.8314 -0.562584 0
899 1 62.5617 0.702334 0
900 1 64.0223 0.702334 0
901 1 60.3708 1.96725 0
902 1 61.8314 1.96725 0
903 1 62.5617 3.23217 0
904 1 64.0223 3.23217 0
905 1 60.3708 4.49709 0
906 1 61.8314 4.49709 0
907 1 62.5617 5.762 0
908 1 64.0223 5.762 0
909 1 60.3708 7.02692 0
910 1 61.8314 7.02692 0
911 1 62.5617 8.29184 0
912 1 64.0223 8.29184 0
913 1 60.3708 9.55676 0
914 1 61.8314 9.55676 0
915 1 62.5617 10.8217 0
916 1 64.0223 10.8217 0
917 1 60.3708 12.0866 0
918 1 61.8314 12.0866 0
919 1 62.5617 13.3515 0
920 1 64.0223 13.3515 0
921 1 60.3708 14.6164 0
922 1 61.8314 14.6164 0
923 1 62.5617 15.8813 0
924 1 64.0223 15.8813 0
925 1 60.3708 17.1463 0
926 1 61.8314 17.1463 0
927 1 62.5617 18.4112 0
928 1 64.0223 18.4112 0
929 1 60.3708 19.6761 0
930 1 61.8314 19.6761 0
931 1 62.5617 20.941 0
932 1 64.0223 20.941 0
933 1 60.3708 22.2059 0
934 1 61.8314 22.2059 0
935 1 62.5617 23.4708 0
936 1 64.0223 23.4708 0
937 1 60.3708 24.7358 0
938 1 61.8314 24.7358 0
939 1 62.5617 26.0007 0
940 1 64.0223 26.0007 0
941 1 60.3708 27.2656 0
942 1 61.8314 27.2656 0
943 1 62.5617 28.5305 0
944 1 64.0223 28.5305 0
945 1 60.3708 29.7954 0
946 1 61.8314 29.7954 0
947 1 62.5617 31.0604 0
948 1 64.0223 31.0604 0
949 1 60.3708 32.3253 0
950 1 61.8314 32.3253 0
951 1 62.5617 33.5902 0
952 1 64.0223 33.5902 0
953 1 60.3708 34.8551 0
954 1 61.8314 34.8551 0
955 1 62.5617 36.12 0
956 1 64.0223 36.12 0
957 1 60.3708 37.3849 0
958 1 61.8314 37.3849 0
959 1 62.5617 38.6499 0
960 1 64.0223 38.6499 0
961 1 64.7526 -0.562584 0
962 1 66.2132 -0.562584 0
963 1 66.9435 0.702334 0
964 1 68.4041 0.702334 0
965 1 64.7526 1.96725 0
966 1 66.2132 1.96725 0
967 1 66.9435 3.23217 0
968 1 68.4041 3.23217 0
969 1 64.7526 4.49709 0
970 1 66.2132 4.49709 0
971 1 66.9435 5.762 0
972 1 68.4041 5.762 0
973 1 64.7526 7.02692 0
974 1 66.2132 7.02692 0
975 1 66.9435 8.29184 0
976 1 68.4041 8.29184 0
977 1 64.7526 9.55676 0
978 1 66.2132 9.55676 0
979 1 66.9435 10.8217 0
980 1 68.4041 10.8217 0
981 1 64.7526 12.0866 0
982 1 66.2132 12.0866 0
983 1 66.9435 13.3515 0
984 1 68.4041 13.3515 0
985 1 64.7526 14.6164 0
986 1 66.2132 14.6164 0
987 1 66.9435 15.8813 0
988 1 68.4041 15.8813 0
989 1 64.7526 17.1463 0
990 1 66.2132 17.1463 0
991 1 66.9435 18.4112 0
992 1 68.4041 18.4112 0
993 1 64.7526 19.6761 0
994 1 66.2132 19.6761 0
995 1 66.9435 20.941 0
996 1 68.4041 20.941 0
997 1 64.7526 22.2059 0
998 1 66.2132 22.2059 0
999 1 66.9435 23.4708 0
1000 1 68.4041 23.4708 0
1001 1 64.7526 24.7358 0
1002 1 66.2132 24.7358 0
1003 1 66.9435 26.0007 0
1004 1 68.4041 26.0007 0
1005 1 64.7526 27.2656 0
1006 1 66.2132 27.2656 0
1007 1 66.9435 28.5305 0
1008 1 68.4041 28.5305 0
1009 1 64.7526 29.7954 0
1010 1 66.2132 29.7954 0
1011 1 66.9435 31.0604 0
1012 1 68.4041 31.0604 0
1013 1 64.7526 32.3253 0
1014 1 66.2132 32.3253 0
1015 1 66.9435 33.5902 0
1016 1 68.4041 33.5902 0
1017 1 64.7526 34.8551 0
1018 1 66.2132 34.8551 0
1019 1 66.9435 36.12 0
1020 1 68.4041 36.12 0
1021 1 64.7526 37.3849 0
1022 1 66.2132 37.3849 0
1023 1 66.9435 38.6499 0
1024 1 68.4041 38.6499 0
