ITEM: TIMESTEP
136
ITEM: NUMBER OF ATOMS
862
ITEM: BOX BOUNDS pp pp ff
1.1157642691852158e-01 7.6568423573081461e+01
4.4130466782394927e-02 2.9470015533217591e+01
-2.0000000000000000e+01 2.0000000000000000e+01
ITEM: ATOMS id type x y z
1 1 0.809227 1.14118 0
2 1 2.42991 1.19642 0
3 1 3.01153 2.47875 0
4 1 4.3769 2.44253 0
5 1 0.801568 3.60811 0
6 1 2.21704 3.61391 0
7 1 2.90456 4.82272 0
8 1 4.30373 4.83594 0
9 1 0.790916 5.95212 0
10 1 2.17384 5.9997 0
11 1 2.86216 7.20413 0
12 1 4.24935 7.24365 0
13 1 0.776344 8.33202 0
14 1 2.14693 8.38829 0
15 1 2.80769 9.60435 0
16 1 4.18494 9.65977 0
17 1 0.737566 10.7042 0
18 1 2.09154 10.7819 0
19 1 2.67338 12.0362 0
20 1 4.06516 12.0878 0
21 1 0.651155 13.4699 0
22 1 1.93704 13.2193 0
23 1 2.62895 14.3906 0
24 1 3.98218 14.4934 0
25 1 1.8505 15.5365 0
26 1 2.33893 16.8155 0
27 1 3.7295 16.9193 0
28 1 1.55428 17.9554 0
29 1 2.04287 19.2543 0
30 1 3.47177 19.3389 0
31 1 1.20852 20.3597 0
32 1 1.91962 21.63 0
33 1 3.30662 21.7399 0
34 1 0.890435 22.7643 0
35 1 1.84569 24.0282 0
36 1 3.21284 24.1451 0
37 1 0.82883 25.1949 0
38 1 1.82832 26.4578 0
39 1 3.18344 26.5679 0
40 1 0.692338 27.5284 0
41 1 1.73561 29.0023 0
42 1 3.32716 28.952 0
43 1 5.01376 1.24923 0
44 1 6.61139 1.24805 0
45 1 7.20993 2.5462 0
46 1 8.55994 2.61125 0
47 1 5.05469 3.65649 0
48 1 6.44816 3.69082 0
49 1 7.09857 4.92738 0
50 1 8.49186 4.99352 0
51 1 4.9733 6.05757 0
52 1 6.36338 6.10935 0
53 1 7.01385 7.34313 0
54 1 8.40437 7.40325 0
55 1 4.90142 8.47255 0
56 1 6.28663 8.52939 0
57 1 6.91717 9.77173 0
58 1 8.30653 9.82896 0
59 1 4.80151 10.9039 0
60 1 6.18822 10.9598 0
61 1 6.81328 12.2027 0
62 1 8.19886 12.2612 0
63 1 4.70626 13.3181 0
64 1 6.08244 13.3863 0
65 1 6.67313 14.6453 0
66 1 8.06153 14.6977 0
67 1 4.53134 15.7629 0
68 1 5.91507 15.8257 0
69 1 6.50635 17.0797 0
70 1 7.89963 17.1201 0
71 1 4.30102 18.1871 0
72 1 5.70365 18.2358 0
73 1 6.32631 19.4812 0
74 1 7.72996 19.522 0
75 1 4.10999 20.5846 0
76 1 5.5241 20.635 0
77 1 6.17479 21.8745 0
78 1 7.58395 21.9238 0
79 1 3.98183 22.972 0
80 1 5.39445 23.0395 0
81 1 6.06951 24.2678 0
82 1 7.4748 24.3337 0
83 1 3.91273 25.3702 0
84 1 5.31906 25.4445 0
85 1 6.00341 26.6718 0
86 1 7.40028 26.7636 0
87 1 3.9221 27.7717 0
88 1 5.2643 27.8226 0
89 1 5.85058 29.1362 0
90 1 7.43631 29.1864 0
91 1 11.3525 0.219805 0
92 1 12.9472 0.262829 0
93 1 9.3231 1.45649 0
94 1 10.7047 1.38405 0
95 1 11.3814 2.62687 0
96 1 12.7824 2.69623 0
97 1 9.23829 3.82001 0
98 1 10.6375 3.82889 0
99 1 11.2823 5.07402 0
100 1 12.6778 5.1316 0
101 1 9.14413 6.22243 0
102 1 10.5387 6.26256 0
103 1 11.1753 7.50756 0
104 1 12.5702 7.56386 0
105 1 9.04168 8.64313 0
106 1 10.4344 8.69457 0
107 1 11.0644 9.9417 0
108 1 12.4587 9.99777 0
109 1 8.93365 11.0743 0
110 1 10.3247 11.1291 0
111 1 10.948 12.3788 0
112 1 12.3427 12.4316 0
113 1 8.81019 13.5136 0
114 1 10.202 13.5643 0
115 1 10.8246 14.8125 0
116 1 12.2202 14.86 0
117 1 8.6718 15.9483 0
118 1 10.0657 15.9908 0
119 1 10.6939 17.2345 0
120 1 12.0909 17.2787 0
121 1 8.52161 18.3636 0
122 1 9.91928 18.4018 0
123 1 10.5563 19.6407 0
124 1 11.9566 19.6877 0
125 1 8.36987 20.7619 0
126 1 9.77419 20.8012 0
127 1 10.4243 22.0345 0
128 1 11.8271 22.092 0
129 1 8.24197 23.1592 0
130 1 9.64742 23.1942 0
131 1 10.3084 24.4189 0
132 1 11.7098 24.4944 0
133 1 8.14398 25.5678 0
134 1 9.54423 25.5797 0
135 1 10.2151 26.7918 0
136 1 11.5627 26.8702 0
137 1 8.07074 28.0127 0
138 1 9.45013 27.9423 0
139 1 15.5704 0.429618 0
140 1 17.164 0.465169 0
141 1 13.558 1.5585 0
142 1 14.9148 1.59471 0
143 1 15.5836 2.82669 0
144 1 16.9877 2.89332 0
145 1 13.4216 3.94602 0
146 1 14.8238 4.00864 0
147 1 15.4643 5.25576 0
148 1 16.8645 5.32112 0
149 1 13.3148 6.37791 0
150 1 14.7123 6.43858 0
151 1 15.3504 7.68589 0
152 1 16.75 7.74756 0
153 1 13.2034 8.81161 0
154 1 14.6005 8.87009 0
155 1 15.2371 10.1175 0
156 1 16.6364 10.1757 0
157 1 13.0896 11.2462 0
158 1 14.4867 11.3015 0
159 1 15.124 12.5477 0
160 1 16.5232 12.6028 0
161 1 12.9738 13.6787 0
162 1 14.3712 13.7301 0
163 1 15.0102 14.9744 0
164 1 16.4096 15.027 0
165 1 12.8543 16.1042 0
166 1 14.2521 16.1529 0
167 1 14.8931 17.3954 0
168 1 16.293 17.4473 0
169 1 12.7291 18.5199 0
170 1 14.1283 18.5693 0
171 1 14.7716 19.8103 0
172 1 16.1724 19.8639 0
173 1 12.6013 20.9263 0
174 1 14.0022 20.9809 0
175 1 14.6487 22.2213 0
176 1 16.05 22.2785 0
177 1 12.4788 23.3285 0
178 1 13.879 23.3913 0
179 1 14.5233 24.6337 0
180 1 15.9269 24.6925 0
181 1 12.3519 25.7404 0
182 1 13.7547 25.8088 0
183 1 14.4184 27.0411 0
184 1 15.7748 27.0742 0
185 1 12.1674 28.1632 0
186 1 13.7611 28.2048 0
187 1 19.7871 0.625968 0
188 1 21.381 0.658642 0
189 1 17.7742 1.75993 0
190 1 19.1319 1.79241 0
191 1 19.7978 3.02575 0
192 1 21.2031 3.08797 0
193 1 17.6256 4.14425 0
194 1 19.0305 4.20487 0
195 1 19.672 5.4518 0
196 1 21.074 5.51431 0
197 1 17.5072 6.56714 0
198 1 18.9087 6.62912 0
199 1 19.5526 7.87503 0
200 1 20.9548 7.93671 0
201 1 17.3915 8.99391 0
202 1 18.7926 9.0543 0
203 1 19.4375 10.2994 0
204 1 20.8396 10.3599 0
205 1 17.2783 11.4212 0
206 1 18.6792 11.4794 0
207 1 19.3257 12.7233 0
208 1 20.7279 12.7827 0
209 1 17.1666 13.847 0
210 1 18.5675 13.9032 0
211 1 19.2152 15.1462 0
212 1 20.6175 15.2043 0
213 1 17.054 16.27 0
214 1 18.4551 16.3249 0
215 1 19.1026 17.5675 0
216 1 20.5051 17.6244 0
217 1 16.9378 18.6895 0
218 1 18.3393 18.7444 0
219 1 18.9855 19.9875 0
220 1 20.3882 20.0438 0
221 1 16.8177 21.1059 0
222 1 18.2194 21.1625 0
223 1 18.8638 22.4066 0
224 1 20.2665 22.4632 0
225 1 16.6945 23.521 0
226 1 18.0956 23.5802 0
227 1 18.7365 24.8258 0
228 1 20.1417 24.8817 0
229 1 16.563 25.9422 0
230 1 17.9672 26.0031 0
231 1 18.6323 27.2357 0
232 1 19.99 27.2661 0
233 1 16.384 28.3682 0
234 1 17.9771 28.4018 0
235 1 24.0042 0.816578 0
236 1 25.5981 0.847198 0
237 1 21.9914 1.95407 0
238 1 23.3496 1.98433 0
239 1 24.0145 3.21845 0
240 1 25.4201 3.2792 0
241 1 21.8402 4.33944 0
242 1 23.2459 4.39752 0
243 1 23.888 5.6443 0
244 1 25.2905 5.70601 0
245 1 21.7186 6.75961 0
246 1 23.1216 6.82024 0
247 1 23.7678 8.06524 0
248 1 25.171 8.12715 0
249 1 21.6011 9.18144 0
250 1 23.004 9.24261 0
251 1 23.6531 10.4863 0
252 1 25.0565 10.5486 0
253 1 21.488 11.6036 0
254 1 22.8911 11.6647 0
255 1 23.5429 12.9073 0
256 1 24.9468 12.9697 0
257 1 21.3782 14.0254 0
258 1 22.7815 14.086 0
259 1 23.4348 15.3278 0
260 1 24.8394 15.3889 0
261 1 21.268 16.4467 0
262 1 22.6717 16.5057 0
263 1 23.3237 17.748 0
264 1 24.7287 17.8063 0
265 1 21.1538 18.8675 0
266 1 22.5576 18.9246 0
267 1 23.206 20.1685 0
268 1 24.6108 20.224 0
269 1 21.0341 21.288 0
270 1 22.4378 21.3443 0
271 1 23.0828 22.5897 0
272 1 24.4871 22.644 0
273 1 20.9103 23.708 0
274 1 22.3132 23.7649 0
275 1 22.9544 25.0117 0
276 1 24.3609 25.065 0
277 1 20.7787 26.1326 0
278 1 22.1844 26.1906 0
279 1 22.8496 27.4242 0
280 1 24.2083 27.4523 0
281 1 20.6004 28.5612 0
282 1 22.1947 28.5918 0
283 1 28.2188 1.00673 0
284 1 29.8099 1.04135 0
285 1 26.2074 2.14405 0
286 1 27.5654 2.17576 0
287 1 28.2292 3.41195 0
288 1 29.6339 3.4822 0
289 1 26.0569 4.53118 0
290 1 27.4624 4.59167 0
291 1 28.1062 5.83834 0
292 1 29.5089 5.90699 0
293 1 25.9362 6.95088 0
294 1 27.3393 7.01357 0
295 1 27.9884 8.25721 0
296 1 29.3925 8.32102 0
297 1 25.8196 9.37089 0
298 1 27.2232 9.43384 0
299 1 27.8736 10.6767 0
300 1 29.2769 10.7414 0
301 1 25.7083 11.7911 0
302 1 27.1122 11.8552 0
303 1 27.7669 13.0965 0
304 1 29.1704 13.1643 0
305 1 25.602 14.2109 0
306 1 27.0067 14.275 0
307 1 27.6665 15.5143 0
308 1 29.0728 15.5796 0
309 1 25.4952 16.6299 0
310 1 26.9012 16.6906 0
311 1 27.5587 17.9308 0
312 1 28.9666 17.9887 0
313 1 25.3806 19.0488 0
314 1 26.7868 19.1046 0
315 1 27.4364 20.3479 0
316 1 28.8432 20.399 0
317 1 25.2575 21.4687 0
318 1 26.6627 21.5217 0
319 1 27.3061 22.7677 0
320 1 28.711 22.8171 0
321 1 25.1305 23.89 0
322 1 26.5344 23.9432 0
323 1 27.1736 25.1915 0
324 1 28.5802 25.2428 0
325 1 24.9972 26.3171 0
326 1 26.4036 26.3717 0
327 1 27.067 27.6071 0
328 1 28.4262 27.6355 0
329 1 24.8183 28.7485 0
330 1 26.4123 28.776 0
331 1 32.4097 1.20843 0
332 1 33.9853 1.25333 0
333 1 30.4133 2.34381 0
334 1 31.7686 2.38545 0
335 1 32.4311 3.62958 0
336 1 33.8314 3.73147 0
337 1 30.2742 4.73399 0
338 1 31.6784 4.81094 0
339 1 32.3481 6.04776 0
340 1 33.7609 6.13649 0
341 1 30.163 7.1478 0
342 1 31.5686 7.21457 0
343 1 32.219 8.45447 0
344 1 33.626 8.51979 0
345 1 30.0405 9.56402 0
346 1 31.4435 9.62606 0
347 1 32.0792 10.8735 0
348 1 33.4749 10.9431 0
349 1 29.9264 11.9846 0
350 1 31.3274 12.054 0
351 1 31.9872 13.2917 0
352 1 33.3871 13.3642 0
353 1 29.833 14.402 0
354 1 31.2377 14.473 0
355 1 31.9134 15.7045 0
356 1 33.3233 15.7742 0
357 1 29.7386 16.8159 0
358 1 31.1484 16.8789 0
359 1 31.8184 18.1127 0
360 1 33.2352 18.166 0
361 1 29.6229 19.2287 0
362 1 31.0331 19.2792 0
363 1 31.6814 20.5211 0
364 1 33.0921 20.5609 0
365 1 29.4874 21.6437 0
366 1 30.8934 21.6886 0
367 1 31.5269 22.9367 0
368 1 32.9306 22.9793 0
369 1 29.349 24.0651 0
370 1 30.7523 24.1138 0
371 1 31.3793 25.3672 0
372 1 32.7809 25.4194 0
373 1 29.2126 26.4978 0
374 1 30.6175 26.5526 0
375 1 31.2789 27.7901 0
376 1 32.6386 27.8207 0
377 1 29.0333 28.9354 0
378 1 30.6254 28.9614 0
379 1 36.5022 1.47701 0
380 1 38.1067 1.43736 0
381 1 34.5571 2.57094 0
382 1 35.8874 2.6367 0
383 1 36.6024 3.82222 0
384 1 37.9231 3.78797 0
385 1 34.526 4.9696 0
386 1 35.9489 5.0538 0
387 1 36.7073 6.28907 0
388 1 38.153 6.35875 0
389 1 34.4391 7.36638 0
390 1 35.8724 7.45315 0
391 1 36.4456 8.73144 0
392 1 37.7728 8.98577 0
393 1 34.2345 9.77293 0
394 1 35.6194 9.85092 0
395 1 36.2665 11.0822 0
396 1 37.6156 11.1337 0
397 1 34.1249 12.1798 0
398 1 35.5167 12.2466 0
399 1 36.1868 13.4597 0
400 1 37.5789 13.5821 0
401 1 34.0667 14.5917 0
402 1 35.4692 14.6575 0
403 1 36.1939 15.8707 0
404 1 37.619 15.9439 0
405 1 34.0171 16.9982 0
406 1 35.4426 17.0579 0
407 1 36.1382 18.288 0
408 1 37.587 18.3522 0
409 1 33.8977 19.4026 0
410 1 35.3208 19.4394 0
411 1 35.961 20.6804 0
412 1 37.3989 20.7326 0
413 1 33.7226 21.8075 0
414 1 35.1316 21.8476 0
415 1 35.7043 23.1217 0
416 1 37.0863 23.2124 0
417 1 33.5417 24.2379 0
418 1 34.9353 24.2941 0
419 1 35.5557 25.546 0
420 1 36.9471 25.5979 0
421 1 33.4074 26.6753 0
422 1 34.8039 26.7281 0
423 1 35.4784 27.952 0
424 1 36.8458 27.9398 0
425 1 33.234 29.1297 0
426 1 34.8316 29.1409 0
427 1 38.3367 17.1562 0
428 1 38.2938 19.6056 0
429 1 37.862 22.0499 0
430 1 37.6877 24.4423 0
431 1 37.634 26.8027 0
432 1 37.4201 29.2341 0
433 1 39.9383 1.39471 0
434 1 41.5689 1.40968 0
435 1 39.3015 2.9133 0
436 1 40.2798 4.03595 0
437 1 41.5832 3.81817 0
438 1 38.9955 4.9559 0
439 1 40.1423 6.13379 0
440 1 41.5471 6.14384 0
441 1 39.3874 7.414 0
442 1 40.1706 8.56578 0
443 1 41.6012 8.5438 0
444 1 39.6339 9.85248 0
445 1 40.339 11.0494 0
446 1 41.744 10.9868 0
447 1 39.7673 12.3117 0
448 1 40.4471 13.5262 0
449 1 41.8466 13.4373 0
450 1 38.3548 14.7457 0
451 1 39.7503 14.7289 0
452 1 40.4803 15.9226 0
453 1 41.8943 15.8455 0
454 1 39.7612 17.1388 0
455 1 40.5094 18.3342 0
456 1 41.9564 18.2576 0
457 1 39.8036 19.5894 0
458 1 40.6983 20.7099 0
459 1 42.1331 20.6489 0
460 1 40.231 22.024 0
461 1 41.0013 23.1876 0
462 1 42.3845 23.0891 0
463 1 39.0457 24.4498 0
464 1 40.4036 24.4197 0
465 1 41.1431 25.5744 0
466 1 42.5346 25.5123 0
467 1 39.0447 26.767 0
468 1 40.4551 26.7789 0
469 1 41.2409 27.915 0
470 1 42.6087 27.917 0
471 1 39.0329 29.2522 0
472 1 40.6554 29.2058 0
473 1 44.1177 1.18552 0
474 1 45.6988 1.13897 0
475 1 42.2014 2.57264 0
476 1 43.5437 2.49911 0
477 1 44.3141 3.63465 0
478 1 45.7064 3.5514 0
479 1 42.3114 4.97353 0
480 1 43.6876 4.88428 0
481 1 44.4101 6.06517 0
482 1 45.8053 5.98349 0
483 1 42.2894 7.33001 0
484 1 43.7043 7.27866 0
485 1 44.4612 8.4592 0
486 1 45.8709 8.39501 0
487 1 42.376 9.73209 0
488 1 43.7888 9.68966 0
489 1 44.5522 10.8716 0
490 1 45.9615 10.8108 0
491 1 42.4902 12.1815 0
492 1 43.8968 12.1147 0
493 1 44.6554 13.2969 0
494 1 46.0629 13.2286 0
495 1 42.5884 14.6199 0
496 1 43.9927 14.5377 0
497 1 44.7499 15.7169 0
498 1 46.1608 15.6454 0
499 1 42.6491 17.0257 0
500 1 44.0703 16.951 0
501 1 44.8543 18.1178 0
502 1 46.2697 18.0574 0
503 1 42.7728 19.4073 0
504 1 44.1944 19.3576 0
505 1 44.9982 20.5162 0
506 1 46.4089 20.4684 0
507 1 42.9586 21.8144 0
508 1 44.3678 21.7646 0
509 1 45.1594 22.9346 0
510 1 46.5634 22.885 0
511 1 43.1543 24.2593 0
512 1 44.5479 24.1937 0
513 1 45.3106 25.3717 0
514 1 46.7129 25.3136 0
515 1 43.2867 26.6928 0
516 1 44.6844 26.6279 0
517 1 45.4622 27.7653 0
518 1 46.8214 27.7323 0
519 1 43.268 29.0949 0
520 1 44.8675 29.0702 0
521 1 48.3026 0.971924 0
522 1 49.8909 0.939718 0
523 1 46.351 2.30857 0
524 1 47.7039 2.27171 0
525 1 48.4815 3.41194 0
526 1 49.8833 3.3462 0
527 1 46.4525 4.73801 0
528 1 47.8517 4.66698 0
529 1 48.6023 5.84888 0
530 1 50.0025 5.7778 0
531 1 46.5492 7.16533 0
532 1 47.9493 7.09099 0
533 1 48.7026 8.2714 0
534 1 50.1057 8.20039 0
535 1 46.6295 9.57574 0
536 1 48.0366 9.5076 0
537 1 48.7977 10.6864 0
538 1 50.2041 10.6187 0
539 1 46.7253 11.9897 0
540 1 48.1335 11.9239 0
541 1 48.8983 13.1013 0
542 1 50.3061 13.036 0
543 1 46.8265 14.4068 0
544 1 48.2356 14.3401 0
545 1 49.0042 15.5155 0
546 1 50.4129 15.4529 0
547 1 46.9328 16.8183 0
548 1 48.3436 16.7555 0
549 1 49.1192 17.9274 0
550 1 50.528 17.8698 0
551 1 47.0557 19.2241 0
552 1 48.466 19.1699 0
553 1 49.2466 20.34 0
554 1 50.6539 20.2872 0
555 1 47.1967 21.6358 0
556 1 48.6032 21.586 0
557 1 49.3809 22.7584 0
558 1 50.7862 22.7068 0
559 1 47.3399 24.0598 0
560 1 48.7433 24.0068 0
561 1 49.5156 25.1815 0
562 1 50.9219 25.129 0
563 1 47.4803 26.4944 0
564 1 48.8851 26.4365 0
565 1 49.6755 27.5705 0
566 1 51.0337 27.5428 0
567 1 47.4804 28.8998 0
568 1 49.0728 28.8692 0
569 1 52.5053 0.782214 0
570 1 54.097 0.750999 0
571 1 50.5429 2.10945 0
572 1 51.8989 2.07902 0
573 1 52.6829 3.21571 0
574 1 54.0871 3.15345 0
575 1 50.6436 4.52968 0
576 1 52.0476 4.46814 0
577 1 52.8087 5.6459 0
578 1 54.2106 5.58093 0
579 1 50.7598 6.95808 0
580 1 52.1621 6.89089 0
581 1 52.9223 8.06974 0
582 1 54.3253 8.0039 0
583 1 50.8649 9.37967 0
584 1 52.2691 9.31222 0
585 1 53.0302 10.491 0
586 1 54.4344 10.4264 0
587 1 50.967 11.7968 0
588 1 52.3731 11.7317 0
589 1 53.1366 12.9097 0
590 1 54.5419 12.8477 0
591 1 51.0722 14.2127 0
592 1 52.4792 14.1504 0
593 1 53.2456 15.3273 0
594 1 54.6515 15.2682 0
595 1 51.1831 16.6278 0
596 1 52.5906 16.569 0
597 1 53.3603 17.7444 0
598 1 54.7663 17.6882 0
599 1 51.3024 19.0428 0
600 1 52.7094 18.9877 0
601 1 53.4815 20.1621 0
602 1 54.8871 20.1079 0
603 1 51.4293 21.4603 0
604 1 52.8351 21.407 0
605 1 53.6076 22.5812 0
606 1 55.0124 22.5276 0
607 1 51.5603 23.8807 0
608 1 52.9644 23.8272 0
609 1 53.736 25.0007 0
610 1 55.1424 24.9476 0
611 1 51.6946 26.3072 0
612 1 53.1005 26.2528 0
613 1 53.8902 27.3869 0
614 1 55.2484 27.3586 0
615 1 51.6891 28.7113 0
616 1 53.2823 28.6833 0
617 1 56.7172 0.591458 0
618 1 58.3105 0.55412 0
619 1 54.7507 1.91882 0
620 1 56.1079 1.8868 0
621 1 56.8951 3.02038 0
622 1 58.2997 2.95117 0
623 1 54.8527 4.33376 0
624 1 56.2578 4.27207 0
625 1 57.0208 5.44817 0
626 1 58.4222 5.37812 0
627 1 54.973 6.75891 0
628 1 56.3756 6.69408 0
629 1 57.135 7.87376 0
630 1 58.5366 7.80747 0
631 1 55.0858 9.1831 0
632 1 56.4887 9.11927 0
633 1 57.2474 10.2997 0
634 1 58.6493 10.2379 0
635 1 55.1955 11.6055 0
636 1 56.5991 11.5441 0
637 1 57.3589 12.7242 0
638 1 58.7613 12.6665 0
639 1 55.305 14.0261 0
640 1 56.7092 13.9676 0
641 1 57.4715 15.1464 0
642 1 58.8746 15.0921 0
643 1 55.4174 16.4453 0
644 1 56.8221 16.3895 0
645 1 57.5881 17.5663 0
646 1 58.9916 17.5138 0
647 1 55.5351 18.8639 0
648 1 56.9399 18.8096 0
649 1 57.7091 19.9845 0
650 1 59.1131 19.9317 0
651 1 55.6578 21.2826 0
652 1 57.0623 21.2281 0
653 1 57.833 22.4016 0
654 1 59.2369 22.3471 0
655 1 55.7841 23.7014 0
656 1 57.1874 23.6453 0
657 1 57.9578 24.8174 0
658 1 59.3637 24.7621 0
659 1 55.9134 26.1254 0
660 1 57.319 26.067 0
661 1 58.1076 27.1995 0
662 1 59.4651 27.1676 0
663 1 55.9035 28.5257 0
664 1 57.4973 28.4939 0
665 1 60.935 0.386286 0
666 1 62.5338 0.327325 0
667 1 58.9674 1.71826 0
668 1 60.324 1.67827 0
669 1 61.1129 2.80616 0
670 1 62.5189 2.71543 0
671 1 59.065 4.13022 0
672 1 60.4695 4.05757 0
673 1 61.2171 5.24029 0
674 1 62.6138 5.16241 0
675 1 59.1779 6.55938 0
676 1 60.5776 6.48909 0
677 1 61.3248 7.67469 0
678 1 62.7218 7.60502 0
679 1 59.2907 8.99037 0
680 1 60.6905 8.92557 0
681 1 61.439 10.1116 0
682 1 62.8365 10.0485 0
683 1 59.4045 11.4205 0
684 1 60.8047 11.3615 0
685 1 61.5568 12.5459 0
686 1 62.955 12.489 0
687 1 59.5194 13.8476 0
688 1 60.9203 13.7935 0
689 1 61.6786 14.9742 0
690 1 63.0779 14.9224 0
691 1 59.6373 16.2704 0
692 1 61.0391 16.2194 0
693 1 61.8053 17.3951 0
694 1 63.2063 17.3459 0
695 1 59.7595 18.6889 0
696 1 61.1624 18.6383 0
697 1 61.9343 19.81 0
698 1 63.3377 19.76 0
699 1 59.8841 21.1046 0
700 1 61.288 21.0517 0
701 1 62.0612 22.2219 0
702 1 63.4659 22.1697 0
703 1 60.0084 23.5188 0
704 1 61.4113 23.4619 0
705 1 62.1821 24.6312 0
706 1 63.5884 24.5779 0
707 1 60.1343 25.9378 0
708 1 61.5399 25.8774 0
709 1 62.3301 27.0067 0
710 1 63.6891 26.9781 0
711 1 60.1218 28.331 0
712 1 61.7159 28.2943 0
713 1 65.1798 0.14177 0
714 1 63.2055 1.47941 0
715 1 64.5916 1.39244 0
716 1 65.2956 2.59627 0
717 1 66.6814 2.52907 0
718 1 63.2531 3.91154 0
719 1 64.649 3.84069 0
720 1 65.3825 5.03146 0
721 1 66.7757 4.9617 0
722 1 63.3524 6.35176 0
723 1 64.7465 6.28126 0
724 1 65.4772 7.47209 0
725 1 66.8665 7.40152 0
726 1 63.4618 8.79448 0
727 1 64.8556 8.72734 0
728 1 65.5902 9.91846 0
729 1 66.98 9.85059 0
730 1 63.5809 11.2369 0
731 1 64.9756 11.1751 0
732 1 65.7193 12.3637 0
733 1 67.1113 12.3017 0
734 1 63.7071 13.6733 0
735 1 65.1032 13.6177 0
736 1 65.8607 14.7985 0
737 1 67.2549 14.742 0
738 1 63.8409 16.1001 0
739 1 65.2392 16.0492 0
740 1 66.013 17.2202 0
741 1 67.412 17.1663 0
742 1 63.9796 18.5169 0
743 1 65.3815 18.467 0
744 1 66.1625 19.6337 0
745 1 67.5673 19.5788 0
746 1 64.1141 20.9288 0
747 1 65.5193 20.8774 0
748 1 66.2973 22.0462 0
749 1 67.7043 21.9863 0
750 1 64.2398 23.3389 0
751 1 65.6444 23.2871 0
752 1 66.4116 24.4614 0
753 1 67.8156 24.3932 0
754 1 64.3573 25.752 0
755 1 65.7608 25.7053 0
756 1 66.5229 26.883 0
757 1 67.9118 26.8154 0
758 1 64.366 28.1618 0
759 1 65.923 28.1171 0
760 1 68.0301 29.2706 0
761 1 67.2833 1.29656 0
762 1 68.8352 1.25646 0
763 1 69.4984 2.44663 0
764 1 70.8556 2.42679 0
765 1 67.4204 3.71668 0
766 1 68.8151 3.66332 0
767 1 69.543 4.85461 0
768 1 70.9375 4.80219 0
769 1 67.5004 6.15378 0
770 1 68.8888 6.08799 0
771 1 69.609 7.27576 0
772 1 70.9926 7.20664 0
773 1 67.5893 8.59203 0
774 1 68.9718 8.51748 0
775 1 69.6856 9.70489 0
776 1 71.0573 9.61963 0
777 1 67.7115 11.0418 0
778 1 69.0963 10.9692 0
779 1 69.8304 12.1577 0
780 1 71.209 12.0736 0
781 1 67.8609 13.4868 0
782 1 69.2503 13.4215 0
783 1 70.0213 14.5941 0
784 1 71.4118 14.5176 0
785 1 68.0268 15.9131 0
786 1 69.4206 15.8504 0
787 1 70.2102 17.0081 0
788 1 71.606 16.9257 0
789 1 68.1988 18.3301 0
790 1 69.6016 18.2682 0
791 1 70.3948 19.4313 0
792 1 71.8006 19.3584 0
793 1 68.3536 20.7436 0
794 1 69.7628 20.6801 0
795 1 70.5603 21.8398 0
796 1 71.9815 21.7512 0
797 1 68.4803 23.1558 0
798 1 69.8897 23.0777 0
799 1 70.6516 24.2537 0
800 1 72.0619 24.1495 0
801 1 68.5693 25.5744 0
802 1 69.9723 25.4934 0
803 1 70.7046 26.692 0
804 1 72.1135 26.5854 0
805 1 68.6178 28.019 0
806 1 70.0053 27.9301 0
807 1 70.669 29.0901 0
808 1 72.2628 29.0395 0
809 1 71.4795 1.13935 0
810 1 73.0779 1.15286 0
811 1 73.6981 2.35154 0
812 1 75.0572 2.41095 0
813 1 71.6054 3.57629 0
814 1 73.0005 3.55009 0
815 1 73.7381 4.73546 0
816 1 75.1379 4.74758 0
817 1 71.6625 5.98748 0
818 1 73.0515 5.94191 0
819 1 73.7732 7.1219 0
820 1 75.1596 7.10852 0
821 1 71.7066 8.39017 0
822 1 73.0853 8.3202 0
823 1 73.7921 9.49516 0
824 1 75.1648 9.47159 0
825 1 71.7641 10.7979 0
826 1 73.1199 10.6912 0
827 1 73.8119 11.8473 0
828 1 75.1485 11.8038 0
829 1 71.9694 13.2494 0
830 1 73.3197 13.1191 0
831 1 74.3425 14.3276 0
832 1 76.0527 14.707 0
833 1 72.2208 15.6635 0
834 1 73.5985 15.609 0
835 1 74.3562 16.7568 0
836 1 75.729 16.6587 0
837 1 72.3832 18.0916 0
838 1 73.7647 18.0035 0
839 1 74.6192 19.1031 0
840 1 75.9409 18.8165 0
841 1 72.6339 20.5037 0
842 1 74.0673 20.3969 0
843 1 74.9342 21.5474 0
844 1 76.3781 21.4262 0
845 1 72.7704 22.9161 0
846 1 74.2081 22.8113 0
847 1 74.9325 24.0264 0
848 1 76.3038 23.9622 0
849 1 72.7918 25.3402 0
850 1 74.1952 25.2517 0
851 1 74.9128 26.4582 0
852 1 76.2636 26.3442 0
853 1 72.8689 27.7337 0
854 1 74.2177 27.6987 0
855 1 74.7962 28.8995 0
856 1 76.4043 28.9876 0
857 1 75.6484 1.14016 0
858 1 75.8422 3.55249 0
859 1 75.8649 5.92225 0
860 1 75.8644 8.29095 0
861 1 75.8436 10.66 0
862 1 75.5756 13.1315 0
