ITEM: TIMESTEP
469
ITEM: NUMBER OF ATOMS
856
ITEM: BOX BOUNDS pp pp ff
5.8592817954159693e-01 7.6094071820458396e+01
2.4444653112335182e-01 2.9269699468876638e+01
-2.0000000000000000e+01 2.0000000000000000e+01
ITEM: ATOMS id type x y z
1 1 76.093 29.2697 0
2 1 1.98166 29.2697 0
3 1 2.68048 1.4537 0
4 1 4.07726 1.45356 0
5 1 76.0929 2.66301 0
6 1 1.98153 2.66291 0
7 1 2.68029 3.87217 0
8 1 4.07705 3.87199 0
9 1 76.0928 5.08152 0
10 1 1.98142 5.0814 0
11 1 2.67999 6.29076 0
12 1 4.07672 6.29059 0
13 1 76.0927 7.50013 0
14 1 1.9813 7.50008 0
15 1 2.67977 8.70951 0
16 1 4.07648 8.70936 0
17 1 76.0926 9.91898 0
18 1 1.98118 9.91893 0
19 1 2.67952 11.1285 0
20 1 4.0762 11.1284 0
21 1 76.0925 12.338 0
22 1 1.98106 12.338 0
23 1 2.67939 13.5475 0
24 1 4.07607 13.5475 0
25 1 76.0925 14.7571 0
26 1 1.98101 14.7571 0
27 1 2.67939 15.9666 0
28 1 4.07607 15.9667 0
29 1 76.0925 17.1761 0
30 1 1.98106 17.1762 0
31 1 2.67952 18.3857 0
32 1 4.0762 18.3858 0
33 1 76.0926 19.5952 0
34 1 1.98118 19.5952 0
35 1 2.67977 20.8046 0
36 1 4.07648 20.8048 0
37 1 76.0927 22.014 0
38 1 1.9813 22.0141 0
39 1 2.67999 23.2234 0
40 1 4.07672 23.2236 0
41 1 76.0928 24.4326 0
42 1 1.98142 24.4327 0
43 1 2.68029 25.642 0
44 1 4.07705 25.6422 0
45 1 76.0929 26.8511 0
46 1 1.98153 26.8512 0
47 1 2.68048 28.0604 0
48 1 4.07726 28.0606 0
49 1 4.77626 29.2697 0
50 1 6.17299 29.2697 0
51 1 6.87197 1.45354 0
52 1 8.26875 1.45342 0
53 1 4.77606 2.6628 0
54 1 6.17284 2.66261 0
55 1 6.87155 3.87189 0
56 1 8.26833 3.87157 0
57 1 4.77567 5.08135 0
58 1 6.17245 5.08104 0
59 1 6.87087 6.29051 0
60 1 8.26759 6.29008 0
61 1 4.77518 7.50001 0
62 1 6.17189 7.49973 0
63 1 6.87012 8.70928 0
64 1 8.2668 8.70882 0
65 1 4.77476 9.91891 0
66 1 6.17144 9.91865 0
67 1 6.86956 11.1283 0
68 1 8.26621 11.1279 0
69 1 4.77445 12.3379 0
70 1 6.17112 12.3378 0
71 1 6.86922 13.5475 0
72 1 8.26588 13.5473 0
73 1 4.77433 14.7571 0
74 1 6.17098 14.7571 0
75 1 6.86922 15.9667 0
76 1 8.26588 15.9668 0
77 1 4.77445 17.1762 0
78 1 6.17112 17.1764 0
79 1 6.86956 18.3859 0
80 1 8.26621 18.3862 0
81 1 4.77476 19.5952 0
82 1 6.17144 19.5955 0
83 1 6.87012 20.8049 0
84 1 8.2668 20.8053 0
85 1 4.77518 22.0141 0
86 1 6.17189 22.0144 0
87 1 6.87087 23.2236 0
88 1 8.26759 23.2241 0
89 1 4.77567 24.4328 0
90 1 6.17245 24.4331 0
91 1 6.87155 25.6423 0
92 1 8.26833 25.6426 0
93 1 4.77606 26.8513 0
94 1 6.17284 26.8515 0
95 1 6.87197 28.0606 0
96 1 8.26875 28.0607 0
97 1 8.96794 29.2697 0
98 1 10.3647 29.2697 0
99 1 11.0638 1.45344 0
100 1 12.4606 1.4532 0
101 1 8.96763 2.66257 0
102 1 10.3644 2.66232 0
103 1 11.063 3.87157 0
104 1 12.4598 3.87093 0
105 1 8.96675 5.08098 0
106 1 10.3635 5.08045 0
107 1 11.0617 6.28992 0
108 1 12.4584 6.28907 0
109 1 8.96572 7.4996 0
110 1 10.3624 7.49898 0
111 1 11.0602 8.70866 0
112 1 12.4569 8.70783 0
113 1 8.96479 9.91847 0
114 1 10.3614 9.91796 0
115 1 11.0592 11.1277 0
116 1 12.4558 11.1272 0
117 1 8.96417 12.3377 0
118 1 10.3608 12.3373 0
119 1 11.0586 13.5472 0
120 1 12.4552 13.547 0
121 1 8.96389 14.7571 0
122 1 10.3605 14.7571 0
123 1 11.0586 15.9669 0
124 1 12.4552 15.9672 0
125 1 8.96417 17.1765 0
126 1 10.3608 17.1768 0
127 1 11.0592 18.3864 0
128 1 12.4558 18.387 0
129 1 8.96479 19.5957 0
130 1 10.3614 19.5962 0
131 1 11.0602 20.8055 0
132 1 12.4569 20.8063 0
133 1 8.96572 22.0145 0
134 1 10.3624 22.0152 0
135 1 11.0617 23.2242 0
136 1 12.4584 23.2251 0
137 1 8.96675 24.4332 0
138 1 10.3635 24.4337 0
139 1 11.063 25.6426 0
140 1 12.4598 25.6432 0
141 1 8.96763 26.8516 0
142 1 10.3644 26.8518 0
143 1 11.0638 28.0607 0
144 1 12.4606 28.0609 0
145 1 13.1601 29.2697 0
146 1 14.557 29.2697 0
147 1 15.2566 1.45319 0
148 1 16.6536 1.45292 0
149 1 13.1596 2.66223 0
150 1 14.5565 2.66172 0
151 1 15.2554 3.87074 0
152 1 16.6524 3.86989 0
153 1 13.1582 5.08027 0
154 1 14.555 5.07919 0
155 1 15.253 6.28874 0
156 1 16.6498 6.28736 0
157 1 13.1562 7.49875 0
158 1 14.5529 7.49748 0
159 1 15.25 8.70746 0
160 1 16.6466 8.7057 0
161 1 13.1543 9.91771 0
162 1 14.5509 9.91666 0
163 1 15.2477 11.1268 0
164 1 16.644 11.1254 0
165 1 13.1531 12.3372 0
166 1 14.5496 12.3365 0
167 1 15.2462 13.5468 0
168 1 16.6425 13.5463 0
169 1 13.1526 14.7571 0
170 1 14.5491 14.7571 0
171 1 15.2462 15.9673 0
172 1 16.6425 15.9678 0
173 1 13.1531 17.177 0
174 1 14.5496 17.1777 0
175 1 15.2477 18.3874 0
176 1 16.644 18.3887 0
177 1 13.1543 19.5964 0
178 1 14.5509 19.5975 0
179 1 15.25 20.8067 0
180 1 16.6466 20.8084 0
181 1 13.1562 22.0154 0
182 1 14.5529 22.0167 0
183 1 15.253 23.2254 0
184 1 16.6498 23.2268 0
185 1 13.1582 24.4339 0
186 1 14.555 24.435 0
187 1 15.2554 25.6434 0
188 1 16.6524 25.6443 0
189 1 13.1596 26.8519 0
190 1 14.5565 26.8524 0
191 1 15.2566 28.061 0
192 1 16.6536 28.0612 0
193 1 17.354 29.2697 0
194 1 18.7513 29.2697 0
195 1 19.4516 1.45305 0
196 1 20.849 1.45269 0
197 1 17.3533 2.6617 0
198 1 18.7504 2.66114 0
199 1 19.4497 3.87005 0
200 1 20.847 3.86914 0
201 1 17.3509 5.07919 0
202 1 18.7479 5.07779 0
203 1 19.4457 6.28739 0
204 1 20.8427 6.28564 0
205 1 17.347 7.49717 0
206 1 18.7436 7.49507 0
207 1 19.4396 8.70531 0
208 1 20.836 8.70244 0
209 1 17.3427 9.91601 0
210 1 18.739 9.91377 0
211 1 19.4336 11.1247 0
212 1 20.8295 11.1219 0
213 1 17.3397 12.3361 0
214 1 18.7357 12.3346 0
215 1 19.4301 13.546 0
216 1 20.8259 13.5448 0
217 1 17.3385 14.7571 0
218 1 18.7346 14.7571 0
219 1 19.4301 15.9682 0
220 1 20.8259 15.9694 0
221 1 17.3397 17.178 0
222 1 18.7357 17.1795 0
223 1 19.4336 18.3894 0
224 1 20.8295 18.3923 0
225 1 17.3427 19.5981 0
226 1 18.739 19.6004 0
227 1 19.4396 20.8088 0
228 1 20.836 20.8117 0
229 1 17.347 22.017 0
230 1 18.7436 22.0191 0
231 1 19.4457 23.2268 0
232 1 20.8427 23.2285 0
233 1 17.3509 24.435 0
234 1 18.7479 24.4364 0
235 1 19.4497 25.6441 0
236 1 20.847 25.645 0
237 1 17.3533 26.8524 0
238 1 18.7504 26.853 0
239 1 19.4516 28.0611 0
240 1 20.849 28.0615 0
241 1 21.5501 29.2697 0
242 1 22.9477 29.2697 0
243 1 23.6484 1.45307 0
244 1 25.0461 1.45296 0
245 1 21.5491 2.66144 0
246 1 22.9466 2.6611 0
247 1 23.6461 3.87021 0
248 1 25.0438 3.86986 0
249 1 21.5457 5.07843 0
250 1 22.9431 5.07753 0
251 1 23.6412 6.28724 0
252 1 25.0388 6.28651 0
253 1 21.5397 7.49563 0
254 1 22.9368 7.49374 0
255 1 23.6326 8.70436 0
256 1 25.0301 8.70267 0
257 1 21.5301 9.91336 0
258 1 22.9261 9.90969 0
259 1 23.6171 11.1215 0
260 1 25.0122 11.1172 0
261 1 21.5218 12.3337 0
262 1 22.9171 12.3307 0
263 1 23.6056 13.5443 0
264 1 24.9996 13.5422 0
265 1 21.5185 14.7571 0
266 1 22.9136 14.7571 0
267 1 23.6056 15.9699 0
268 1 24.9996 15.9719 0
269 1 21.5218 17.1804 0
270 1 22.9171 17.1835 0
271 1 23.6171 18.3926 0
272 1 25.0122 18.3969 0
273 1 21.5301 19.6008 0
274 1 22.9261 19.6045 0
275 1 23.6326 20.8098 0
276 1 25.0301 20.8115 0
277 1 21.5397 22.0185 0
278 1 22.9368 22.0204 0
279 1 23.6412 23.2269 0
280 1 25.0388 23.2276 0
281 1 21.5457 24.4357 0
282 1 22.9431 24.4366 0
283 1 23.6461 25.6439 0
284 1 25.0438 25.6443 0
285 1 21.5491 26.8527 0
286 1 22.9466 26.853 0
287 1 23.6484 28.0611 0
288 1 25.0461 28.0612 0
289 1 25.7474 29.2697 0
290 1 27.1454 29.2697 0
291 1 27.8462 1.45342 0
292 1 29.2443 1.4533 0
293 1 25.7464 2.66199 0
294 1 27.1443 2.66184 0
295 1 27.8442 3.8713 0
296 1 29.2423 3.8707 0
297 1 25.7428 5.07949 0
298 1 27.1408 5.07905 0
299 1 27.8396 6.28917 0
300 1 29.238 6.28686 0
301 1 25.7362 7.49684 0
302 1 27.1342 7.49615 0
303 1 27.8312 8.7075 0
304 1 29.2298 8.70018 0
305 1 25.7241 9.91466 0
306 1 27.1224 9.91381 0
307 1 27.8155 11.1294 0
308 1 29.2185 11.1082 0
309 1 25.6956 12.3315 0
310 1 27.0879 12.3305 0
311 1 27.7625 13.5542 0
312 1 29.1533 13.4783 0
313 1 25.6852 14.7571 0
314 1 27.0769 14.7571 0
315 1 27.7625 15.96 0
316 1 29.1533 16.0358 0
317 1 25.6956 17.1827 0
318 1 27.0879 17.1836 0
319 1 27.8155 18.3848 0
320 1 29.2185 18.4059 0
321 1 25.7241 19.5995 0
322 1 27.1224 19.6003 0
323 1 27.8312 20.8067 0
324 1 29.2298 20.814 0
325 1 25.7362 22.0173 0
326 1 27.1342 22.018 0
327 1 27.8396 23.225 0
328 1 29.238 23.2273 0
329 1 25.7428 24.4347 0
330 1 27.1408 24.4351 0
331 1 27.8442 25.6428 0
332 1 29.2423 25.6434 0
333 1 25.7464 26.8522 0
334 1 27.1443 26.8523 0
335 1 27.8462 28.0607 0
336 1 29.2443 28.0608 0
337 1 29.9457 29.2697 0
338 1 31.3439 29.2697 0
339 1 32.0447 1.45393 0
340 1 33.443 1.45417 0
341 1 29.9449 2.66254 0
342 1 31.3432 2.66305 0
343 1 32.0437 3.87271 0
344 1 33.4422 3.87359 0
345 1 29.9425 5.07999 0
346 1 31.341 5.08113 0
347 1 32.0415 6.29082 0
348 1 33.4403 6.29261 0
349 1 29.9378 7.49583 0
350 1 31.3368 7.4982 0
351 1 32.0372 8.70815 0
352 1 33.4364 8.71085 0
353 1 29.9297 9.9075 0
354 1 31.3289 9.91329 0
355 1 32.0244 11.1272 0
356 1 33.4298 11.1298 0
357 1 29.9206 12.3157 0
358 1 31.2984 12.3293 0
359 1 32.0313 13.5251 0
360 1 33.3989 13.528 0
361 1 32.0313 15.989 0
362 1 33.3989 15.9862 0
363 1 29.9206 17.1984 0
364 1 31.2984 17.1848 0
365 1 32.0244 18.387 0
366 1 33.4298 18.3843 0
367 1 29.9297 19.6066 0
368 1 31.3289 19.6009 0
369 1 32.0372 20.806 0
370 1 33.4364 20.8033 0
371 1 29.9378 22.0183 0
372 1 31.3368 22.0159 0
373 1 32.0415 23.2233 0
374 1 33.4403 23.2215 0
375 1 29.9425 24.4342 0
376 1 31.341 24.433 0
377 1 32.0437 25.6414 0
378 1 33.4422 25.6406 0
379 1 29.9449 26.8516 0
380 1 31.3432 26.8511 0
381 1 32.0447 28.0602 0
382 1 33.443 28.06 0
383 1 34.1437 29.2697 0
384 1 35.542 29.2697 0
385 1 36.2425 1.45445 0
386 1 37.6409 1.45445 0
387 1 34.1435 2.66411 0
388 1 35.5419 2.66447 0
389 1 36.2424 3.87456 0
390 1 37.641 3.87456 0
391 1 34.1427 5.08359 0
392 1 35.5414 5.08437 0
393 1 36.2422 6.29445 0
394 1 37.6412 6.29445 0
395 1 34.1409 7.50281 0
396 1 35.5402 7.50403 0
397 1 36.2419 8.71404 0
398 1 37.6415 8.71404 0
399 1 34.1366 9.92144 0
400 1 35.5372 9.92243 0
401 1 36.2389 11.1336 0
402 1 37.6445 11.1336 0
403 1 34.1425 12.3388 0
404 1 35.5205 12.3397 0
405 1 36.2581 13.5325 0
406 1 37.6253 13.5325 0
407 1 36.2581 15.9817 0
408 1 37.6253 15.9817 0
409 1 34.1425 17.1754 0
410 1 35.5205 17.1744 0
411 1 36.2389 18.3805 0
412 1 37.6445 18.3805 0
413 1 34.1366 19.5927 0
414 1 35.5372 19.5917 0
415 1 36.2419 20.8001 0
416 1 37.6415 20.8001 0
417 1 34.1409 22.0113 0
418 1 35.5402 22.0101 0
419 1 36.2422 23.2197 0
420 1 37.6412 23.2197 0
421 1 34.1427 24.4306 0
422 1 35.5414 24.4298 0
423 1 36.2424 25.6396 0
424 1 37.641 25.6396 0
425 1 34.1435 26.85 0
426 1 35.5419 26.8497 0
427 1 36.2425 28.0597 0
428 1 37.6409 28.0597 0
429 1 38.3414 29.2697 0
430 1 39.7397 29.2697 0
431 1 40.4404 1.45417 0
432 1 41.8388 1.45393 0
433 1 38.3415 2.66447 0
434 1 39.7399 2.66411 0
435 1 40.4412 3.87359 0
436 1 41.8397 3.87271 0
437 1 38.342 5.08437 0
438 1 39.7407 5.08359 0
439 1 40.4431 6.29261 0
440 1 41.8419 6.29082 0
441 1 38.3432 7.50403 0
442 1 39.7425 7.50281 0
443 1 40.447 8.71085 0
444 1 41.8462 8.70815 0
445 1 38.3462 9.92243 0
446 1 39.7468 9.92144 0
447 1 40.4536 11.1298 0
448 1 41.859 11.1272 0
449 1 38.3629 12.3397 0
450 1 39.7409 12.3388 0
451 1 40.4845 13.528 0
452 1 41.8521 13.5251 0
453 1 40.4845 15.9862 0
454 1 41.8521 15.989 0
455 1 38.3629 17.1744 0
456 1 39.7409 17.1754 0
457 1 40.4536 18.3843 0
458 1 41.859 18.387 0
459 1 38.3462 19.5917 0
460 1 39.7468 19.5927 0
461 1 40.447 20.8033 0
462 1 41.8462 20.806 0
463 1 38.3432 22.0101 0
464 1 39.7425 22.0113 0
465 1 40.4431 23.2215 0
466 1 41.8419 23.2233 0
467 1 38.342 24.4298 0
468 1 39.7407 24.4306 0
469 1 40.4412 25.6406 0
470 1 41.8397 25.6414 0
471 1 38.3415 26.8497 0
472 1 39.7399 26.85 0
473 1 40.4404 28.06 0
474 1 41.8388 28.0602 0
475 1 42.5395 29.2697 0
476 1 43.9377 29.2697 0
477 1 44.6391 1.4533 0
478 1 46.0372 1.45342 0
479 1 42.5402 2.66305 0
480 1 43.9385 2.66254 0
481 1 44.6411 3.8707 0
482 1 46.0392 3.8713 0
483 1 42.5424 5.08113 0
484 1 43.9409 5.07999 0
485 1 44.6454 6.28686 0
486 1 46.0438 6.28917 0
487 1 42.5466 7.4982 0
488 1 43.9456 7.49583 0
489 1 44.6536 8.70018 0
490 1 46.0522 8.7075 0
491 1 42.5545 9.91329 0
492 1 43.9537 9.9075 0
493 1 44.6649 11.1082 0
494 1 46.0679 11.1294 0
495 1 42.585 12.3293 0
496 1 43.9628 12.3157 0
497 1 44.7301 13.4783 0
498 1 46.1209 13.5542 0
499 1 44.7301 16.0358 0
500 1 46.1209 15.96 0
501 1 42.585 17.1848 0
502 1 43.9628 17.1984 0
503 1 44.6649 18.4059 0
504 1 46.0679 18.3848 0
505 1 42.5545 19.6009 0
506 1 43.9537 19.6066 0
507 1 44.6536 20.814 0
508 1 46.0522 20.8067 0
509 1 42.5466 22.0159 0
510 1 43.9456 22.0183 0
511 1 44.6454 23.2273 0
512 1 46.0438 23.225 0
513 1 42.5424 24.433 0
514 1 43.9409 24.4342 0
515 1 44.6411 25.6434 0
516 1 46.0392 25.6428 0
517 1 42.5402 26.8511 0
518 1 43.9385 26.8516 0
519 1 44.6391 28.0608 0
520 1 46.0372 28.0607 0
521 1 46.738 29.2697 0
522 1 48.136 29.2697 0
523 1 48.8373 1.45296 0
524 1 50.235 1.45307 0
525 1 46.7391 2.66184 0
526 1 48.137 2.66199 0
527 1 48.8396 3.86986 0
528 1 50.2373 3.87021 0
529 1 46.7426 5.07905 0
530 1 48.1406 5.07949 0
531 1 48.8446 6.28651 0
532 1 50.2422 6.28724 0
533 1 46.7492 7.49615 0
534 1 48.1472 7.49684 0
535 1 48.8533 8.70267 0
536 1 50.2508 8.70436 0
537 1 46.761 9.91381 0
538 1 48.1593 9.91466 0
539 1 48.8712 11.1172 0
540 1 50.2663 11.1215 0
541 1 46.7955 12.3305 0
542 1 48.1878 12.3315 0
543 1 48.8838 13.5422 0
544 1 50.2778 13.5443 0
545 1 46.8065 14.7571 0
546 1 48.1982 14.7571 0
547 1 48.8838 15.9719 0
548 1 50.2778 15.9699 0
549 1 46.7955 17.1836 0
550 1 48.1878 17.1827 0
551 1 48.8712 18.3969 0
552 1 50.2663 18.3926 0
553 1 46.761 19.6003 0
554 1 48.1593 19.5995 0
555 1 48.8533 20.8115 0
556 1 50.2508 20.8098 0
557 1 46.7492 22.018 0
558 1 48.1472 22.0173 0
559 1 48.8446 23.2276 0
560 1 50.2422 23.2269 0
561 1 46.7426 24.4351 0
562 1 48.1406 24.4347 0
563 1 48.8396 25.6443 0
564 1 50.2373 25.6439 0
565 1 46.7391 26.8523 0
566 1 48.137 26.8522 0
567 1 48.8373 28.0612 0
568 1 50.235 28.0611 0
569 1 50.9357 29.2697 0
570 1 52.3333 29.2697 0
571 1 53.0344 1.45269 0
572 1 54.4318 1.45305 0
573 1 50.9368 2.6611 0
574 1 52.3343 2.66144 0
575 1 53.0364 3.86914 0
576 1 54.4337 3.87005 0
577 1 50.9403 5.07753 0
578 1 52.3377 5.07843 0
579 1 53.0407 6.28564 0
580 1 54.4377 6.28739 0
581 1 50.9466 7.49374 0
582 1 52.3437 7.49563 0
583 1 53.0474 8.70244 0
584 1 54.4438 8.70531 0
585 1 50.9573 9.90969 0
586 1 52.3533 9.91336 0
587 1 53.0539 11.1219 0
588 1 54.4498 11.1247 0
589 1 50.9663 12.3307 0
590 1 52.3616 12.3337 0
591 1 53.0575 13.5448 0
592 1 54.4533 13.546 0
593 1 50.9698 14.7571 0
594 1 52.3649 14.7571 0
595 1 53.0575 15.9694 0
596 1 54.4533 15.9682 0
597 1 50.9663 17.1835 0
598 1 52.3616 17.1804 0
599 1 53.0539 18.3923 0
600 1 54.4498 18.3894 0
601 1 50.9573 19.6045 0
602 1 52.3533 19.6008 0
603 1 53.0474 20.8117 0
604 1 54.4438 20.8088 0
605 1 50.9466 22.0204 0
606 1 52.3437 22.0185 0
607 1 53.0407 23.2285 0
608 1 54.4377 23.2268 0
609 1 50.9403 24.4366 0
610 1 52.3377 24.4357 0
611 1 53.0364 25.645 0
612 1 54.4337 25.6441 0
613 1 50.9368 26.853 0
614 1 52.3343 26.8527 0
615 1 53.0344 28.0615 0
616 1 54.4318 28.0611 0
617 1 55.1321 29.2697 0
618 1 56.5294 29.2697 0
619 1 57.2298 1.45292 0
620 1 58.6268 1.45319 0
621 1 55.133 2.66114 0
622 1 56.5301 2.6617 0
623 1 57.231 3.86989 0
624 1 58.628 3.87074 0
625 1 55.1355 5.07779 0
626 1 56.5325 5.07919 0
627 1 57.2336 6.28736 0
628 1 58.6304 6.28874 0
629 1 55.1398 7.49507 0
630 1 56.5364 7.49717 0
631 1 57.2368 8.7057 0
632 1 58.6334 8.70746 0
633 1 55.1444 9.91377 0
634 1 56.5407 9.91601 0
635 1 57.2394 11.1254 0
636 1 58.6357 11.1268 0
637 1 55.1477 12.3346 0
638 1 56.5437 12.3361 0
639 1 57.2409 13.5463 0
640 1 58.6372 13.5468 0
641 1 55.1488 14.7571 0
642 1 56.5449 14.7571 0
643 1 57.2409 15.9678 0
644 1 58.6372 15.9673 0
645 1 55.1477 17.1795 0
646 1 56.5437 17.178 0
647 1 57.2394 18.3887 0
648 1 58.6357 18.3874 0
649 1 55.1444 19.6004 0
650 1 56.5407 19.5981 0
651 1 57.2368 20.8084 0
652 1 58.6334 20.8067 0
653 1 55.1398 22.0191 0
654 1 56.5364 22.017 0
655 1 57.2336 23.2268 0
656 1 58.6304 23.2254 0
657 1 55.1355 24.4364 0
658 1 56.5325 24.435 0
659 1 57.231 25.6443 0
660 1 58.628 25.6434 0
661 1 55.133 26.853 0
662 1 56.5301 26.8524 0
663 1 57.2298 28.0612 0
664 1 58.6268 28.061 0
665 1 59.3264 29.2697 0
666 1 60.7233 29.2697 0
667 1 61.4228 1.4532 0
668 1 62.8196 1.45344 0
669 1 59.3269 2.66172 0
670 1 60.7238 2.66223 0
671 1 61.4236 3.87093 0
672 1 62.8204 3.87157 0
673 1 59.3284 5.07919 0
674 1 60.7252 5.08027 0
675 1 61.425 6.28907 0
676 1 62.8217 6.28992 0
677 1 59.3305 7.49748 0
678 1 60.7272 7.49875 0
679 1 61.4265 8.70783 0
680 1 62.8232 8.70866 0
681 1 59.3325 9.91666 0
682 1 60.7291 9.91771 0
683 1 61.4276 11.1272 0
684 1 62.8242 11.1277 0
685 1 59.3338 12.3365 0
686 1 60.7303 12.3372 0
687 1 61.4282 13.547 0
688 1 62.8248 13.5472 0
689 1 59.3343 14.7571 0
690 1 60.7308 14.7571 0
691 1 61.4282 15.9672 0
692 1 62.8248 15.9669 0
693 1 59.3338 17.1777 0
694 1 60.7303 17.177 0
695 1 61.4276 18.387 0
696 1 62.8242 18.3864 0
697 1 59.3325 19.5975 0
698 1 60.7291 19.5964 0
699 1 61.4265 20.8063 0
700 1 62.8232 20.8055 0
701 1 59.3305 22.0167 0
702 1 60.7272 22.0154 0
703 1 61.425 23.2251 0
704 1 62.8217 23.2242 0
705 1 59.3284 24.435 0
706 1 60.7252 24.4339 0
707 1 61.4236 25.6432 0
708 1 62.8204 25.6426 0
709 1 59.3269 26.8524 0
710 1 60.7238 26.8519 0
711 1 61.4228 28.0609 0
712 1 62.8196 28.0607 0
713 1 63.5187 29.2697 0
714 1 64.9155 29.2697 0
715 1 65.6147 1.45342 0
716 1 67.0114 1.45354 0
717 1 63.519 2.66232 0
718 1 64.9158 2.66257 0
719 1 65.6151 3.87157 0
720 1 67.0118 3.87189 0
721 1 63.5199 5.08045 0
722 1 64.9166 5.08098 0
723 1 65.6158 6.29008 0
724 1 67.0125 6.29051 0
725 1 63.521 7.49898 0
726 1 64.9177 7.4996 0
727 1 65.6166 8.70882 0
728 1 67.0133 8.70928 0
729 1 63.522 9.91796 0
730 1 64.9186 9.91847 0
731 1 65.6172 11.1279 0
732 1 67.0138 11.1283 0
733 1 63.5226 12.3373 0
734 1 64.9192 12.3377 0
735 1 65.6175 13.5473 0
736 1 67.0142 13.5475 0
737 1 63.5229 14.7571 0
738 1 64.9195 14.7571 0
739 1 65.6175 15.9668 0
740 1 67.0142 15.9667 0
741 1 63.5226 17.1768 0
742 1 64.9192 17.1765 0
743 1 65.6172 18.3862 0
744 1 67.0138 18.3859 0
745 1 63.522 19.5962 0
746 1 64.9186 19.5957 0
747 1 65.6166 20.8053 0
748 1 67.0133 20.8049 0
749 1 63.521 22.0152 0
750 1 64.9177 22.0145 0
751 1 65.6158 23.2241 0
752 1 67.0125 23.2236 0
753 1 63.5199 24.4337 0
754 1 64.9166 24.4332 0
755 1 65.6151 25.6426 0
756 1 67.0118 25.6423 0
757 1 63.519 26.8518 0
758 1 64.9158 26.8516 0
759 1 65.6147 28.0607 0
760 1 67.0114 28.0606 0
761 1 67.7104 29.2697 0
762 1 69.1071 29.2697 0
763 1 69.8061 1.45356 0
764 1 71.2029 1.4537 0
765 1 67.7106 2.66261 0
766 1 69.1073 2.6628 0
767 1 69.8063 3.87199 0
768 1 71.2031 3.87217 0
769 1 67.711 5.08104 0
770 1 69.1077 5.08135 0
771 1 69.8067 6.29059 0
772 1 71.2034 6.29076 0
773 1 67.7115 7.49973 0
774 1 69.1082 7.50001 0
775 1 69.8069 8.70936 0
776 1 71.2036 8.70951 0
777 1 67.712 9.91865 0
778 1 69.1086 9.91891 0
779 1 69.8072 11.1284 0
780 1 71.2039 11.1285 0
781 1 67.7123 12.3378 0
782 1 69.109 12.3379 0
783 1 69.8073 13.5475 0
784 1 71.204 13.5475 0
785 1 67.7124 14.7571 0
786 1 69.1091 14.7571 0
787 1 69.8073 15.9667 0
788 1 71.204 15.9666 0
789 1 67.7123 17.1764 0
790 1 69.109 17.1762 0
791 1 69.8072 18.3858 0
792 1 71.2039 18.3857 0
793 1 67.712 19.5955 0
794 1 69.1086 19.5952 0
795 1 69.8069 20.8048 0
796 1 71.2036 20.8046 0
797 1 67.7115 22.0144 0
798 1 69.1082 22.0141 0
799 1 69.8067 23.2236 0
800 1 71.2034 23.2234 0
801 1 67.711 24.4331 0
802 1 69.1077 24.4328 0
803 1 69.8063 25.6422 0
804 1 71.2031 25.642 0
805 1 67.7106 26.8515 0
806 1 69.1073 26.8513 0
807 1 69.8061 28.0606 0
808 1 71.2029 28.0604 0
809 1 71.9017 29.2697 0
810 1 73.2985 29.2697 0
811 1 73.9974 1.45371 0
812 1 75.3942 1.45371 0
813 1 71.9019 2.66291 0
814 1 73.2986 2.66301 0
815 1 73.9974 3.87227 0
816 1 75.3941 3.87227 0
817 1 71.902 5.0814 0
818 1 73.2987 5.08152 0
819 1 73.9974 6.2908 0
820 1 75.3941 6.2908 0
821 1 71.9021 7.50008 0
822 1 73.2988 7.50013 0
823 1 73.9974 8.7095 0
824 1 75.3941 8.7095 0
825 1 71.9022 9.91893 0
826 1 73.2989 9.91898 0
827 1 73.9974 11.1285 0
828 1 75.3941 11.1285 0
829 1 71.9023 12.338 0
830 1 73.299 12.338 0
831 1 73.9974 13.5475 0
832 1 75.3941 13.5475 0
833 1 71.9024 14.7571 0
834 1 73.2991 14.7571 0
835 1 73.9974 15.9666 0
836 1 75.3941 15.9666 0
837 1 71.9023 17.1762 0
838 1 73.299 17.1761 0
839 1 73.9974 18.3857 0
840 1 75.3941 18.3857 0
841 1 71.9022 19.5952 0
842 1 73.2989 19.5952 0
843 1 73.9974 20.8046 0
844 1 75.3941 20.8046 0
845 1 71.9021 22.0141 0
846 1 73.2988 22.014 0
847 1 73.9974 23.2233 0
848 1 75.3941 23.2233 0
849 1 71.902 24.4327 0
850 1 73.2987 24.4326 0
851 1 73.9974 25.6419 0
852 1 75.3941 25.6419 0
853 1 71.9019 26.8512 0
854 1 73.2986 26.8511 0
855 1 73.9974 28.0604 0
856 1 75.3942 28.0604 0
