ITEM: TIMESTEP
508
ITEM: NUMBER OF ATOMS
862
ITEM: BOX BOUNDS pp pp ff
-1.5268463469665390e+00 7.8206846346966586e+01
-6.6170580864080730e-01 3.0175851808640754e+01
-2.0000000000000000e+01 2.0000000000000000e+01
ITEM: ATOMS id type x y z
1 1 -0.771546 1.52606 0
2 1 0.434356 0.856323 0
3 1 1.36144 1.96104 0
4 1 2.71949 1.83403 0
5 1 -0.757374 3.09106 0
6 1 0.721034 3.20918 0
7 1 1.43016 4.414 0
8 1 2.87175 4.37146 0
9 1 -0.752945 5.66351 0
10 1 0.727152 5.64705 0
11 1 1.44347 6.86845 0
12 1 2.88286 6.86815 0
13 1 -0.760558 8.09163 0
14 1 0.720562 8.09653 0
15 1 1.41937 9.33082 0
16 1 2.84112 9.36 0
17 1 -0.771458 10.5049 0
18 1 0.689617 10.5406 0
19 1 1.35987 11.7883 0
20 1 2.74809 11.8544 0
21 1 -0.784191 12.747 0
22 1 0.583002 12.9562 0
23 1 1.12893 14.2407 0
24 1 2.53835 14.3628 0
25 1 0.284949 15.415 0
26 1 0.802022 16.7537 0
27 1 2.24862 16.8992 0
28 1 -0.0731312 17.9289 0
29 1 0.398941 19.3225 0
30 1 1.92873 19.4931 0
31 1 -0.830833 20.6133 0
32 1 0.219408 22.0757 0
33 1 1.74106 22.1155 0
34 1 -0.833746 23.4529 0
35 1 0.206306 24.8239 0
36 1 1.69786 24.7943 0
37 1 -0.833377 26.2846 0
38 1 0.215876 27.6299 0
39 1 1.78692 27.4888 0
40 1 -0.806123 29.1366 0
41 1 0.628015 30.251 0
42 1 2.15486 30.047 0
43 1 3.21113 0.511834 0
44 1 4.63164 0.347484 0
45 1 5.68066 1.68942 0
46 1 7.26042 1.74035 0
47 1 3.55574 3.06784 0
48 1 5.00806 3.01843 0
49 1 5.77951 4.32109 0
50 1 7.2405 4.34823 0
51 1 3.6097 5.6108 0
52 1 5.0498 5.60594 0
53 1 5.76303 6.89399 0
54 1 7.19997 6.93066 0
55 1 3.58484 8.12452 0
56 1 5.01257 8.1515 0
57 1 5.6945 9.44101 0
58 1 7.11942 9.49103 0
59 1 3.51464 10.6328 0
60 1 4.92626 10.6845 0
61 1 5.57613 11.9803 0
62 1 6.99699 12.0426 0
63 1 3.36709 13.1437 0
64 1 4.77659 13.2218 0
65 1 5.3962 14.5198 0
66 1 6.82875 14.5906 0
67 1 3.12383 15.6713 0
68 1 4.55883 15.7642 0
69 1 5.16993 17.0632 0
70 1 6.62963 17.1331 0
71 1 2.83388 18.2282 0
72 1 4.31139 18.3166 0
73 1 4.94266 19.6112 0
74 1 6.43449 19.6673 0
75 1 2.57349 20.8243 0
76 1 4.09652 20.8766 0
77 1 4.77722 22.164 0
78 1 6.28329 22.1915 0
79 1 2.46744 23.4456 0
80 1 3.98114 23.4485 0
81 1 4.71218 24.7217 0
82 1 6.20514 24.7084 0
83 1 2.47958 26.0944 0
84 1 3.98223 26.0342 0
85 1 4.78516 27.2807 0
86 1 6.23983 27.2151 0
87 1 2.69482 28.7209 0
88 1 4.15881 28.6052 0
89 1 5.08337 29.8449 0
90 1 6.43997 29.6644 0
91 1 10.4174 -0.708265 0
92 1 12.0159 -0.443239 0
93 1 8.11213 0.54317 0
94 1 9.5957 0.580835 0
95 1 10.3017 1.92055 0
96 1 11.8115 2.03167 0
97 1 7.99435 3.08907 0
98 1 9.49692 3.15811 0
99 1 10.1931 4.49102 0
100 1 11.6677 4.575 0
101 1 7.95787 5.67161 0
102 1 9.41494 5.73197 0
103 1 10.1034 7.05594 0
104 1 11.5567 7.13031 0
105 1 7.88952 8.2403 0
106 1 9.32761 8.30002 0
107 1 10.0014 9.61493 0
108 1 11.4447 9.68592 0
109 1 7.78506 10.7957 0
110 1 9.217 10.8587 0
111 1 9.87562 12.1662 0
112 1 11.3186 12.2364 0
113 1 7.64078 13.3433 0
114 1 9.07716 13.4097 0
115 1 9.72458 14.709 0
116 1 11.1755 14.7783 0
117 1 7.46037 15.8851 0
118 1 8.91231 15.9514 0
119 1 9.55775 17.2413 0
120 1 11.0221 17.3082 0
121 1 7.26629 18.4194 0
122 1 8.74014 18.48 0
123 1 9.39431 19.7597 0
124 1 10.8716 19.8232 0
125 1 7.09331 20.943 0
126 1 8.58449 20.9916 0
127 1 9.25366 22.26 0
128 1 10.7354 22.3212 0
129 1 6.9733 23.453 0
130 1 8.46426 23.483 0
131 1 9.14935 24.7364 0
132 1 10.6146 24.8003 0
133 1 6.93595 25.9472 0
134 1 8.39606 25.9487 0
135 1 9.09359 27.1827 0
136 1 10.4717 27.2562 0
137 1 7.03082 28.4305 0
138 1 8.39852 28.3681 0
139 1 14.884 -0.371364 0
140 1 16.4403 -0.161397 0
141 1 12.644 0.831114 0
142 1 14.0837 0.907826 0
143 1 14.7593 2.22197 0
144 1 16.241 2.3231 0
145 1 12.4696 3.35335 0
146 1 13.9471 3.44559 0
147 1 14.6096 4.76167 0
148 1 16.0773 4.85224 0
149 1 12.344 5.89896 0
150 1 13.8091 5.98444 0
151 1 14.4775 7.30286 0
152 1 15.9387 7.38827 0
153 1 12.231 8.45035 0
154 1 13.6852 8.5301 0
155 1 14.3535 9.84604 0
156 1 15.8107 9.92742 0
157 1 12.1112 10.9996 0
158 1 13.5617 11.076 0
159 1 14.2262 12.3864 0
160 1 15.6836 12.4651 0
161 1 11.9769 13.5422 0
162 1 13.4303 13.6167 0
163 1 14.091 14.9201 0
164 1 15.552 14.9974 0
165 1 11.8294 16.0754 0
166 1 13.2903 16.1483 0
167 1 13.9496 17.445 0
168 1 15.4153 17.5221 0
169 1 11.6779 18.5968 0
170 1 13.1468 18.6689 0
171 1 13.8072 19.9608 0
172 1 15.2752 20.0397 0
173 1 11.5337 21.1047 0
174 1 13.0057 21.1786 0
175 1 13.6664 22.4697 0
176 1 15.1313 22.5529 0
177 1 11.4025 23.599 0
178 1 12.8662 23.6806 0
179 1 13.5212 24.977 0
180 1 14.9767 25.066 0
181 1 11.2697 26.0836 0
182 1 12.7175 26.1882 0
183 1 13.3753 27.4984 0
184 1 14.7912 27.5752 0
185 1 11.0599 28.5318 0
186 1 12.581 28.7795 0
187 1 19.2841 -0.097143 0
188 1 20.8296 0.106289 0
189 1 17.0676 1.11521 0
190 1 18.493 1.18679 0
191 1 19.1623 2.496 0
192 1 20.6291 2.59221 0
193 1 16.8867 3.6336 0
194 1 18.351 3.72251 0
195 1 19.0046 5.03166 0
196 1 20.4633 5.11919 0
197 1 16.7376 6.1659 0
198 1 18.2006 6.25301 0
199 1 18.862 7.564 0
200 1 20.322 7.64815 0
201 1 16.6046 8.70249 0
202 1 18.0654 8.78619 0
203 1 18.7318 10.0964 0
204 1 20.1934 10.1776 0
205 1 16.4775 11.239 0
206 1 17.938 11.3199 0
207 1 18.6056 12.6275 0
208 1 20.0692 12.7068 0
209 1 16.3488 13.7721 0
210 1 17.8111 13.8514 0
211 1 18.4776 15.1558 0
212 1 19.9435 15.2346 0
213 1 16.2151 16.2994 0
214 1 17.6803 16.3786 0
215 1 18.3446 17.6803 0
216 1 19.8127 17.7602 0
217 1 16.0769 18.8205 0
218 1 17.5441 18.9011 0
219 1 18.2053 20.2017 0
220 1 19.674 20.2838 0
221 1 15.9348 21.3371 0
222 1 17.4011 21.4206 0
223 1 18.0572 22.722 0
224 1 19.525 22.8069 0
225 1 15.7854 23.8528 0
226 1 17.2476 23.9406 0
227 1 17.8969 25.2436 0
228 1 19.3619 25.3299 0
229 1 15.6154 26.3703 0
230 1 17.0827 26.4686 0
231 1 17.7494 27.7755 0
232 1 19.1747 27.8449 0
233 1 15.4107 28.8523 0
234 1 16.9568 29.0581 0
235 1 23.6552 0.153637 0
236 1 25.1899 0.380566 0
237 1 21.4512 1.38138 0
238 1 22.8666 1.44957 0
239 1 23.5275 2.76048 0
240 1 24.9734 2.8609 0
241 1 21.2698 3.89941 0
242 1 22.721 3.98586 0
243 1 23.3722 5.29373 0
244 1 24.8189 5.38016 0
245 1 21.1197 6.42762 0
246 1 22.5753 6.51195 0
247 1 23.2384 7.81776 0
248 1 24.6952 7.8981 0
249 1 20.9868 8.95601 0
250 1 22.4471 9.03689 0
251 1 23.1167 10.3405 0
252 1 24.5804 10.4169 0
253 1 20.8621 11.4839 0
254 1 22.3262 11.5622 0
255 1 22.9978 12.8646 0
256 1 24.4657 12.9391 0
257 1 20.7384 14.0113 0
258 1 22.2054 14.0884 0
259 1 22.8764 15.3904 0
260 1 24.3474 15.4649 0
261 1 20.6111 16.5375 0
262 1 22.0806 16.6151 0
263 1 22.7492 17.9172 0
264 1 24.2229 17.9933 0
265 1 20.4771 19.0622 0
266 1 21.9485 19.1417 0
267 1 22.6129 20.4441 0
268 1 24.0892 20.5231 0
269 1 20.3338 21.5858 0
270 1 21.806 21.6679 0
271 1 22.4645 22.9706 0
272 1 23.943 23.0529 0
273 1 20.1781 24.1094 0
274 1 21.6497 24.1945 0
275 1 22.3018 25.4964 0
276 1 23.7795 25.5802 0
277 1 20.0029 26.6332 0
278 1 21.4825 26.7266 0
279 1 22.1541 28.0307 0
280 1 23.5874 28.096 0
281 1 19.8018 29.1191 0
282 1 21.3588 29.3199 0
283 1 27.9631 0.435249 0
284 1 29.4485 0.728957 0
285 1 25.7885 1.66061 0
286 1 27.1822 1.73803 0
287 1 27.8302 3.05188 0
288 1 29.2387 3.15066 0
289 1 25.6114 4.16932 0
290 1 27.0455 4.25626 0
291 1 27.7104 5.55282 0
292 1 29.1566 5.62321 0
293 1 25.4814 6.6832 0
294 1 26.9336 6.76144 0
295 1 27.6101 8.05134 0
296 1 29.0744 8.11396 0
297 1 25.3669 9.19713 0
298 1 26.8302 9.26943 0
299 1 27.5086 10.5602 0
300 1 28.9789 10.6219 0
301 1 25.2548 11.7152 0
302 1 26.7237 11.7851 0
303 1 27.4015 13.0795 0
304 1 28.8743 13.143 0
305 1 25.1401 14.2384 0
306 1 26.6123 14.3084 0
307 1 27.2893 15.6068 0
308 1 28.7652 15.6728 0
309 1 25.0203 16.7658 0
310 1 26.4956 16.8376 0
311 1 27.1707 18.1392 0
312 1 28.6503 18.2086 0
313 1 24.8927 19.2958 0
314 1 26.3713 19.3709 0
315 1 27.0429 20.6759 0
316 1 28.5259 20.7503 0
317 1 24.7542 21.8271 0
318 1 26.2364 21.9071 0
319 1 26.9026 23.2161 0
320 1 28.3906 23.2989 0
321 1 24.6008 24.3575 0
322 1 26.0867 24.4437 0
323 1 26.745 25.7541 0
324 1 28.2413 25.8474 0
325 1 24.4229 26.8835 0
326 1 25.9182 26.9809 0
327 1 26.59 28.2887 0
328 1 28.0385 28.3662 0
329 1 24.2127 29.3665 0
330 1 25.7785 29.5824 0
331 1 31.9317 0.790782 0
332 1 33.2685 0.614537 0
333 1 30.0034 1.99344 0
334 1 31.3397 2.02285 0
335 1 32.0697 3.21969 0
336 1 33.4923 3.16796 0
337 1 29.9119 4.42017 0
338 1 31.3571 4.45337 0
339 1 32.0649 5.69444 0
340 1 33.5283 5.69148 0
341 1 29.8438 6.89339 0
342 1 31.3112 6.93277 0
343 1 32.0063 8.19724 0
344 1 33.48 8.22289 0
345 1 29.759 9.39239 0
346 1 31.2313 9.43952 0
347 1 31.9165 10.7193 0
348 1 33.3873 10.7615 0
349 1 29.6601 11.9091 0
350 1 31.1323 11.9629 0
351 1 31.8144 13.254 0
352 1 33.2827 13.3055 0
353 1 29.5547 14.4376 0
354 1 31.0289 14.4964 0
355 1 31.7138 15.7951 0
356 1 33.1901 15.8508 0
357 1 29.4454 16.9725 0
358 1 30.9253 17.0352 0
359 1 31.6104 18.3367 0
360 1 33.0991 18.3959 0
361 1 29.3282 19.512 0
362 1 30.8126 19.5782 0
363 1 31.4923 20.8815 0
364 1 32.9837 20.9415 0
365 1 29.1996 22.0596 0
366 1 30.6839 22.131 0
367 1 31.3584 23.443 0
368 1 32.8374 23.5023 0
369 1 29.0598 24.6192 0
370 1 30.5483 24.704 0
371 1 31.233 26.0423 0
372 1 32.711 26.0986 0
373 1 28.892 27.1756 0
374 1 30.4276 27.3036 0
375 1 31.1568 28.7055 0
376 1 32.7339 28.7548 0
377 1 28.6388 29.6372 0
378 1 30.2703 29.992 0
379 1 36.1428 0.445706 0
380 1 37.6306 0.258102 0
381 1 34.1372 1.85283 0
382 1 35.5686 1.76755 0
383 1 36.4026 3.01812 0
384 1 37.8721 2.94824 0
385 1 34.2545 4.40568 0
386 1 35.7131 4.36627 0
387 1 36.4693 5.6653 0
388 1 37.9293 5.67385 0
389 1 34.2477 6.95443 0
390 1 35.7223 6.95863 0
391 1 36.4378 8.25525 0
392 1 37.9222 8.31797 0
393 1 34.1727 9.50259 0
394 1 35.6439 9.5385 0
395 1 36.3244 10.8491 0
396 1 37.7771 10.9118 0
397 1 34.0687 12.0528 0
398 1 35.531 12.1032 0
399 1 36.2021 13.4067 0
400 1 37.6349 13.4998 0
401 1 33.9683 14.6049 0
402 1 35.4302 14.6538 0
403 1 36.1404 15.9592 0
404 1 37.6214 15.9986 0
405 1 33.8858 17.1536 0
406 1 35.3736 17.2059 0
407 1 36.0862 18.5069 0
408 1 37.5991 18.5462 0
409 1 33.7897 19.6961 0
410 1 35.2988 19.7526 0
411 1 35.9922 21.0524 0
412 1 37.5455 21.1151 0
413 1 33.659 22.2372 0
414 1 35.1619 22.2932 0
415 1 35.8101 23.5762 0
416 1 37.318 23.6688 0
417 1 33.5069 24.8036 0
418 1 34.9664 24.8432 0
419 1 35.6241 26.1178 0
420 1 37.0342 26.1409 0
421 1 33.4406 27.425 0
422 1 34.8872 27.4099 0
423 1 35.6847 28.6716 0
424 1 37.0418 28.5776 0
425 1 33.7428 30.118 0
426 1 35.1565 29.9853 0
427 1 38.3519 17.2796 0
428 1 38.3401 19.8461 0
429 1 38.2471 22.44 0
430 1 37.824 24.9844 0
431 1 37.7144 27.3624 0
432 1 37.9308 29.684 0
433 1 40.3577 0.379501 0
434 1 41.7099 0.721606 0
435 1 38.9467 1.4937 0
436 1 39.9649 3.01921 0
437 1 41.4462 3.1552 0
438 1 38.9286 4.31146 0
439 1 40.023 5.73775 0
440 1 41.4842 5.72577 0
441 1 39.012 7.11442 0
442 1 40.0852 8.39064 0
443 1 41.5918 8.28 0
444 1 39.5355 9.73443 0
445 1 40.3334 10.939 0
446 1 41.7848 10.8502 0
447 1 39.7302 12.2395 0
448 1 40.4854 13.467 0
449 1 41.935 13.4009 0
450 1 38.3611 14.7469 0
451 1 39.8044 14.7385 0
452 1 40.5609 15.9843 0
453 1 42.0346 15.9347 0
454 1 39.8449 17.2724 0
455 1 40.6141 18.5328 0
456 1 42.1228 18.4767 0
457 1 39.893 19.8392 0
458 1 40.7124 21.105 0
459 1 42.258 21.0194 0
460 1 40.037 22.4415 0
461 1 41.0153 23.6743 0
462 1 42.5017 23.5447 0
463 1 39.1821 25.3206 0
464 1 40.5364 25.0018 0
465 1 41.3712 26.1654 0
466 1 42.7724 26.0932 0
467 1 39.2191 27.5368 0
468 1 40.7173 27.4161 0
469 1 41.4297 28.6923 0
470 1 42.8784 28.6962 0
471 1 39.1711 29.0593 0
472 1 40.3446 29.7604 0
473 1 44.2421 0.7341 0
474 1 45.7557 0.513622 0
475 1 42.2314 1.99302 0
476 1 43.6163 1.99309 0
477 1 44.3713 3.18086 0
478 1 45.8265 3.10471 0
479 1 42.1847 4.4589 0
480 1 43.6782 4.44272 0
481 1 44.4517 5.67143 0
482 1 45.9325 5.61233 0
483 1 42.2682 6.98697 0
484 1 43.7669 6.94678 0
485 1 44.5693 8.18639 0
486 1 46.0527 8.12396 0
487 1 42.4291 9.53983 0
488 1 43.9051 9.47472 0
489 1 44.7157 10.7172 0
490 1 46.1884 10.6491 0
491 1 42.597 12.0907 0
492 1 44.0558 12.0185 0
493 1 44.8563 13.2552 0
494 1 46.3245 13.1835 0
495 1 42.7211 14.6319 0
496 1 44.186 14.5619 0
497 1 44.9793 15.7931 0
498 1 46.4542 15.7188 0
499 1 42.8162 17.1705 0
500 1 44.3015 17.0999 0
501 1 45.1023 18.3273 0
502 1 46.5876 18.2495 0
503 1 42.9277 19.7106 0
504 1 44.4322 19.6311 0
505 1 45.2551 20.8568 0
506 1 46.741 20.7752 0
507 1 43.114 22.2451 0
508 1 44.6082 22.1555 0
509 1 45.4516 23.389 0
510 1 46.9215 23.3033 0
511 1 43.3787 24.7857 0
512 1 44.8263 24.6918 0
513 1 45.657 25.9263 0
514 1 47.1122 25.8396 0
515 1 43.5764 27.3453 0
516 1 45.0289 27.243 0
517 1 45.8498 28.4472 0
518 1 47.2663 28.3796 0
519 1 43.6583 29.9841 0
520 1 45.2286 29.7248 0
521 1 48.5515 0.460739 0
522 1 50.0962 0.266407 0
523 1 46.5119 1.80265 0
524 1 47.9226 1.73966 0
525 1 48.7291 2.949 0
526 1 50.1952 2.86188 0
527 1 46.6096 4.32371 0
528 1 48.0723 4.24988 0
529 1 48.8689 5.46928 0
530 1 50.3363 5.39177 0
531 1 46.725 6.83576 0
532 1 48.2005 6.76517 0
533 1 48.9989 7.9891 0
534 1 50.472 7.91427 0
535 1 46.8544 9.35486 0
536 1 48.3305 9.28448 0
537 1 49.131 10.512 0
538 1 50.6046 10.4379 0
539 1 46.9909 11.8824 0
540 1 48.4637 11.8103 0
541 1 49.2641 13.0388 0
542 1 50.7369 12.964 0
543 1 47.1238 14.4145 0
544 1 48.5967 14.3401 0
545 1 49.3978 15.5674 0
546 1 50.8708 15.4913 0
547 1 47.2552 16.9462 0
548 1 48.7317 16.8694 0
549 1 49.5371 18.0954 0
550 1 51.0101 18.0178 0
551 1 47.3983 19.4752 0
552 1 48.8763 19.3961 0
553 1 49.689 20.6228 0
554 1 51.1592 20.5438 0
555 1 47.5644 22.0036 0
556 1 49.0369 21.9224 0
557 1 49.8558 23.1516 0
558 1 51.3206 23.0713 0
559 1 47.7494 24.5357 0
560 1 49.2119 24.4523 0
561 1 50.0325 25.6816 0
562 1 51.4913 25.6015 0
563 1 47.9318 27.0741 0
564 1 49.3958 26.9846 0
565 1 50.2193 28.2028 0
566 1 51.6383 28.14 0
567 1 48.0496 29.6685 0
568 1 49.5921 29.4803 0
569 1 52.9281 0.221576 0
570 1 54.481 0.0270728 0
571 1 50.8732 1.5574 0
572 1 52.2957 1.49578 0
573 1 53.1143 2.70983 0
574 1 54.5918 2.62038 0
575 1 50.9979 4.09114 0
576 1 52.4641 4.01234 0
577 1 53.2715 5.23485 0
578 1 54.7436 5.15318 0
579 1 51.138 6.61502 0
580 1 52.6093 6.5368 0
581 1 53.4118 7.76029 0
582 1 54.8852 7.68102 0
583 1 51.2722 9.13859 0
584 1 52.7452 9.06193 0
585 1 53.545 10.2864 0
586 1 55.0176 10.2091 0
587 1 51.4044 11.6637 0
588 1 52.877 11.5879 0
589 1 53.6759 12.8133 0
590 1 55.1468 12.7371 0
591 1 51.5371 14.1903 0
592 1 53.0086 14.1144 0
593 1 53.8081 15.34 0
594 1 55.2769 15.264 0
595 1 51.673 16.7172 0
596 1 53.1431 16.6405 0
597 1 53.9447 17.8658 0
598 1 55.4106 17.7889 0
599 1 51.8163 19.2437 0
600 1 53.2838 19.1659 0
601 1 54.0884 20.3911 0
602 1 55.55 20.3124 0
603 1 51.9704 21.7709 0
604 1 53.4334 21.6916 0
605 1 54.242 22.9176 0
606 1 55.6983 22.8364 0
607 1 52.1362 24.3005 0
608 1 53.5941 24.2192 0
609 1 54.4074 25.4455 0
610 1 55.8592 25.3629 0
611 1 52.3063 26.8368 0
612 1 53.7698 26.7484 0
613 1 54.5922 27.9651 0
614 1 56.0088 27.8997 0
615 1 52.4221 29.4309 0
616 1 53.9668 29.2404 0
617 1 57.3287 -0.0232699 0
618 1 58.891 -0.236347 0
619 1 55.2687 1.31536 0
620 1 56.6995 1.24968 0
621 1 57.5283 2.45942 0
622 1 59.0215 2.35983 0
623 1 55.4031 3.84962 0
624 1 56.879 3.76583 0
625 1 57.6918 4.98551 0
626 1 59.1744 4.89689 0
627 1 55.5505 6.37649 0
628 1 57.0273 6.29398 0
629 1 57.8302 7.51727 0
630 1 59.3072 7.43464 0
631 1 55.6863 8.90499 0
632 1 57.1602 8.82562 0
633 1 57.9577 10.0515 0
634 1 59.429 9.97385 0
635 1 55.8157 11.4344 0
636 1 57.2866 11.3577 0
637 1 58.0821 12.585 0
638 1 59.5496 12.5106 0
639 1 55.9442 13.963 0
640 1 57.4124 13.8878 0
641 1 58.2077 15.1146 0
642 1 59.6731 15.0416 0
643 1 56.0749 16.4893 0
644 1 57.5405 16.414 0
645 1 58.3361 17.6384 0
646 1 59.7995 17.5649 0
647 1 56.2099 19.0128 0
648 1 57.6718 18.9357 0
649 1 58.4675 20.1567 0
650 1 59.9271 20.08 0
651 1 56.3516 21.5351 0
652 1 57.8076 21.4542 0
653 1 58.6043 22.6715 0
654 1 60.0556 22.5886 0
655 1 56.5043 24.0591 0
656 1 57.9522 23.973 0
657 1 58.7542 25.1865 0
658 1 60.1922 25.0963 0
659 1 56.6702 26.5919 0
660 1 58.121 26.4941 0
661 1 58.941 27.6975 0
662 1 60.3425 27.6181 0
663 1 56.7971 29.1913 0
664 1 58.3353 28.978 0
665 1 61.7595 -0.307873 0
666 1 63.3824 -0.629229 0
667 1 59.6978 1.04726 0
668 1 61.1455 0.966213 0
669 1 61.9911 2.15682 0
670 1 63.5262 2.02781 0
671 1 59.8398 3.58211 0
672 1 61.3334 3.48536 0
673 1 62.1429 4.70384 0
674 1 63.6347 4.61113 0
675 1 59.9802 6.11902 0
676 1 61.4628 6.03165 0
677 1 62.2567 7.2617 0
678 1 63.7292 7.18272 0
679 1 60.1037 8.6618 0
680 1 61.5755 8.58277 0
681 1 62.3649 9.81764 0
682 1 63.8274 9.74607 0
683 1 60.2222 11.204 0
684 1 61.688 11.1305 0
685 1 62.4781 12.3666 0
686 1 63.9373 12.2994 0
687 1 60.3427 13.741 0
688 1 61.8063 13.6707 0
689 1 62.5986 14.9053 0
690 1 64.059 14.8412 0
691 1 60.4667 16.2696 0
692 1 61.9303 16.2009 0
693 1 62.7231 17.4314 0
694 1 64.1866 17.3702 0
695 1 60.5923 18.7883 0
696 1 62.0557 18.7194 0
697 1 62.8455 19.9437 0
698 1 64.3109 19.8852 0
699 1 60.7176 21.2971 0
700 1 62.1774 21.2249 0
701 1 62.9595 22.4402 0
702 1 64.4224 22.3842 0
703 1 60.8443 23.7972 0
704 1 62.2916 23.7165 0
705 1 63.0619 24.9147 0
706 1 64.5108 24.8618 0
707 1 60.9865 26.3007 0
708 1 62.4074 26.1942 0
709 1 63.1869 27.3485 0
710 1 64.5351 27.2968 0
711 1 61.1319 28.9098 0
712 1 62.6282 28.6257 0
713 1 66.6672 -0.621048 0
714 1 64.2462 0.652814 0
715 1 65.7914 0.602312 0
716 1 66.5734 1.83719 0
717 1 68.1567 1.75015 0
718 1 64.3349 3.26592 0
719 1 65.8454 3.18561 0
720 1 66.6166 4.43654 0
721 1 68.1006 4.38437 0
722 1 64.4228 5.85014 0
723 1 65.8986 5.77823 0
724 1 66.6671 7.03415 0
725 1 68.1219 6.98294 0
726 1 64.5116 8.42565 0
727 1 65.9699 8.35991 0
728 1 66.7451 9.6143 0
729 1 68.1895 9.56108 0
730 1 64.6122 10.9901 0
731 1 66.0645 10.9278 0
732 1 66.849 12.18 0
733 1 68.2921 12.1254 0
734 1 64.7273 13.5425 0
735 1 66.1805 13.4828 0
736 1 66.9745 14.7332 0
737 1 68.4238 14.6795 0
738 1 64.8531 16.0816 0
739 1 66.3117 16.0254 0
740 1 67.1107 17.2736 0
741 1 68.571 17.2247 0
742 1 64.9802 18.6063 0
743 1 66.4453 18.5558 0
744 1 67.2406 19.8019 0
745 1 68.7104 19.7622 0
746 1 65.0974 21.1161 0
747 1 66.565 21.0745 0
748 1 67.3453 22.3209 0
749 1 68.8154 22.2956 0
750 1 65.1931 23.6091 0
751 1 66.6517 23.5847 0
752 1 67.4021 24.8395 0
753 1 68.8577 24.8315 0
754 1 65.2495 26.083 0
755 1 66.6752 26.0994 0
756 1 67.3702 27.3868 0
757 1 68.821 27.3725 0
758 1 65.143 28.5201 0
759 1 66.5008 28.7269 0
760 1 68.692 29.8158 0
761 1 69.1669 0.336595 0
762 1 70.618 0.431269 0
763 1 71.2129 1.73467 0
764 1 72.6587 1.78988 0
765 1 68.8721 3.0431 0
766 1 70.3617 3.04459 0
767 1 71.0499 4.33941 0
768 1 72.497 4.35463 0
769 1 68.8421 5.66091 0
770 1 70.2957 5.63915 0
771 1 71.0281 6.91605 0
772 1 72.4652 6.90312 0
773 1 68.8807 8.24958 0
774 1 70.3194 8.21307 0
775 1 71.0758 9.47637 0
776 1 72.5028 9.44216 0
777 1 68.9633 10.8212 0
778 1 70.3961 10.7747 0
779 1 71.1735 12.0328 0
780 1 72.5953 11.9829 0
781 1 69.0818 13.3831 0
782 1 70.5177 13.3309 0
783 1 71.3199 14.5901 0
784 1 72.752 14.5295 0
785 1 69.2272 15.9368 0
786 1 70.677 15.8842 0
787 1 71.4974 17.1455 0
788 1 72.9569 17.084 0
789 1 69.3781 18.4816 0
790 1 70.8467 18.4356 0
791 1 71.6643 19.7002 0
792 1 73.1517 19.6503 0
793 1 69.506 21.0207 0
794 1 70.9874 20.9881 0
795 1 71.7794 22.2596 0
796 1 73.2797 22.233 0
797 1 69.5818 23.559 0
798 1 71.0638 23.5457 0
799 1 71.8113 24.8253 0
800 1 73.3093 24.8297 0
801 1 69.5776 26.0965 0
802 1 71.0479 26.1059 0
803 1 71.737 27.3913 0
804 1 73.2132 27.4289 0
805 1 69.4915 28.611 0
806 1 70.915 28.6631 0
807 1 71.5157 29.9648 0
808 1 72.9599 30.0339 0
809 1 73.5369 0.494338 0
810 1 74.9654 0.582304 0
811 1 75.5001 1.88871 0
812 1 76.8498 1.98955 0
813 1 73.2831 3.08541 0
814 1 74.6992 3.1287 0
815 1 75.3721 4.41092 0
816 1 76.8012 4.44204 0
817 1 73.1952 5.63356 0
818 1 74.6292 5.6454 0
819 1 75.3414 6.89272 0
820 1 76.779 6.89058 0
821 1 73.1986 8.16197 0
822 1 74.6279 8.14354 0
823 1 75.3589 9.37572 0
824 1 76.7823 9.3477 0
825 1 73.2587 10.6902 0
826 1 74.6725 10.6462 0
827 1 75.4272 11.8685 0
828 1 76.8198 11.8022 0
829 1 73.3826 13.2317 0
830 1 74.7911 13.1631 0
831 1 75.6071 14.3899 0
832 1 77.0034 14.2437 0
833 1 73.5807 15.7828 0
834 1 75.0187 15.6928 0
835 1 75.8872 16.9103 0
836 1 77.3341 16.7611 0
837 1 73.8021 18.3437 0
838 1 75.286 18.2582 0
839 1 76.1629 19.5406 0
840 1 77.6846 19.4444 0
841 1 73.9782 20.9252 0
842 1 75.4926 20.8702 0
843 1 76.3184 22.1533 0
844 1 77.8562 22.0899 0
845 1 74.0614 23.5248 0
846 1 75.5798 23.5101 0
847 1 76.3424 24.8467 0
848 1 77.84 24.8564 0
849 1 74.0323 26.139 0
850 1 75.5538 26.1739 0
851 1 76.2565 27.5469 0
852 1 77.8527 27.6622 0
853 1 73.8587 28.7326 0
854 1 75.3611 28.8046 0
855 1 75.9497 30.1114 0
856 1 77.5041 30.2667 0
857 1 77.7439 0.868685 0
858 1 77.5019 3.22913 0
859 1 77.5014 5.66509 0
860 1 77.492 8.11144 0
861 1 77.5011 10.5533 0
862 1 77.5811 12.9699 0
