ITEM: TIMESTEP
912
ITEM: NUMBER OF ATOMS
861
ITEM: BOX BOUNDS pp pp ff
-1.4779778699361346e+00 7.8157977869936190e+01
-6.1416595093675674e-01 3.0128311950936695e+01
-2.0000000000000000e+01 2.0000000000000000e+01
ITEM: ATOMS id type x y z
1 1 -0.645249 0.204938 0
2 1 -0.710827 2.61113 0
3 1 -1.24279 5.00203 0
4 1 2.15509 29.7892 0
5 1 2.57632 0.479788 0
6 1 4.05558 0.744978 0
7 1 0.13118 1.45276 0
8 1 1.6183 1.62175 0
9 1 2.16332 3.03046 0
10 1 3.63442 3.25981 0
11 1 -0.242791 3.94685 0
12 1 1.21983 4.20427 0
13 1 1.76203 5.58807 0
14 1 3.25775 5.79435 0
15 1 -0.832829 6.53355 0
16 1 0.837302 6.77744 0
17 1 1.48634 8.14933 0
18 1 2.95942 8.31863 0
19 1 -0.805408 9.18018 0
20 1 0.683854 9.33651 0
21 1 1.31468 10.6694 0
22 1 2.68771 10.8502 0
23 1 -0.789408 11.2633 0
24 1 0.442792 11.7705 0
25 1 0.746999 13.1663 0
26 1 2.24358 13.3968 0
27 1 -0.65309 14.3088 0
28 1 0.397583 15.6662 0
29 1 1.88025 15.8519 0
30 1 -0.488944 16.8372 0
31 1 0.0787787 18.1778 0
32 1 1.53163 18.3707 0
33 1 -0.757068 19.3078 0
34 1 -0.276704 20.643 0
35 1 1.16366 20.896 0
36 1 -1.22562 21.6878 0
37 1 -0.811054 23.2072 0
38 1 0.785771 23.4614 0
39 1 -0.771723 25.8418 0
40 1 0.614859 26.0512 0
41 1 -0.446455 29.5179 0
42 1 0.861438 28.9526 0
43 1 5.02214 -0.385737 0
44 1 6.4536 -0.15299 0
45 1 6.96716 1.19578 0
46 1 8.40608 1.41528 0
47 1 4.56806 2.1153 0
48 1 6.03361 2.34105 0
49 1 6.56621 3.70066 0
50 1 8.02742 3.91436 0
51 1 4.17437 4.63261 0
52 1 5.64892 4.84821 0
53 1 6.20175 6.20913 0
54 1 7.66529 6.41827 0
55 1 3.83403 7.1581 0
56 1 5.30287 7.36024 0
57 1 5.8688 8.72676 0
58 1 7.31949 8.93018 0
59 1 3.5517 9.69035 0
60 1 4.98352 9.88271 0
61 1 5.5323 11.2495 0
62 1 6.97248 11.4507 0
63 1 3.19728 12.2125 0
64 1 4.62837 12.4151 0
65 1 5.16229 13.7653 0
66 1 6.60993 13.9675 0
67 1 2.78203 14.7216 0
68 1 4.24623 14.9222 0
69 1 4.79295 16.273 0
70 1 6.24661 16.4752 0
71 1 2.43148 17.216 0
72 1 3.88722 17.4236 0
73 1 4.4349 18.7815 0
74 1 5.88913 18.9827 0
75 1 2.0811 19.7372 0
76 1 3.53032 19.9396 0
77 1 4.07934 21.2937 0
78 1 5.53906 21.49 0
79 1 1.7029 22.2697 0
80 1 3.1773 22.459 0
81 1 3.75104 23.8028 0
82 1 5.21029 23.9902 0
83 1 1.43061 24.8359 0
84 1 2.88787 24.9683 0
85 1 3.47573 26.2915 0
86 1 4.90262 26.4831 0
87 1 1.21281 27.3977 0
88 1 2.65098 27.4401 0
89 1 3.16901 28.7485 0
90 1 4.54465 28.9954 0
91 1 11.6865 30.0398 0
92 1 13.1334 -0.491217 0
93 1 9.33734 0.29792 0
94 1 10.7786 0.455501 0
95 1 11.3175 1.81324 0
96 1 12.762 2.02121 0
97 1 8.93987 2.76661 0
98 1 10.3991 2.97104 0
99 1 10.9401 4.32563 0
100 1 12.3923 4.53234 0
101 1 8.57206 5.26922 0
102 1 10.0303 5.4769 0
103 1 10.5766 6.83395 0
104 1 12.0296 7.0407 0
105 1 8.2178 7.77841 0
106 1 9.6723 7.98499 0
107 1 10.221 9.34463 0
108 1 11.6718 9.55046 0
109 1 7.87134 10.2936 0
110 1 9.31942 10.4979 0
111 1 9.86636 11.8573 0
112 1 11.3151 12.062 0
113 1 7.51644 12.8094 0
114 1 8.96329 13.0125 0
115 1 9.50831 14.3689 0
116 1 10.9573 14.5729 0
117 1 7.15337 15.3209 0
118 1 8.60357 15.5236 0
119 1 9.14929 16.8779 0
120 1 10.5995 17.0816 0
121 1 6.79305 17.8287 0
122 1 8.24556 18.031 0
123 1 8.79323 19.3845 0
124 1 10.2438 19.5881 0
125 1 6.43857 20.3352 0
126 1 7.89231 20.5363 0
127 1 8.44315 21.889 0
128 1 9.89207 22.0928 0
129 1 6.0967 22.839 0
130 1 7.54769 23.0389 0
131 1 8.10195 24.3934 0
132 1 9.54273 24.596 0
133 1 5.77667 25.3413 0
134 1 7.21323 25.5436 0
135 1 7.76448 26.9073 0
136 1 9.19046 27.0995 0
137 1 5.44962 27.8467 0
138 1 6.86812 28.0568 0
139 1 7.34729 29.4307 0
140 1 16.0217 -0.0757558 0
141 1 17.4427 0.175217 0
142 1 13.6697 0.867841 0
143 1 15.1117 1.07452 0
144 1 15.6563 2.4377 0
145 1 17.1079 2.6502 0
146 1 13.3015 3.37977 0
147 1 14.7497 3.58821 0
148 1 15.2924 4.94567 0
149 1 16.7415 5.1538 0
150 1 12.9358 5.88932 0
151 1 14.3864 6.0965 0
152 1 14.9308 7.45376 0
153 1 16.3803 7.66078 0
154 1 12.5756 8.39857 0
155 1 14.0263 8.60498 0
156 1 14.5717 9.96265 0
157 1 16.0209 10.1691 0
158 1 12.2183 10.9089 0
159 1 13.6679 11.1146 0
160 1 14.2133 12.4722 0
161 1 15.662 12.6782 0
162 1 11.8609 13.4195 0
163 1 13.3098 13.6246 0
164 1 13.8551 14.9816 0
165 1 15.3033 15.1874 0
166 1 11.5029 15.929 0
167 1 12.9518 16.1338 0
168 1 13.4972 17.4903 0
169 1 14.9451 17.6961 0
170 1 11.1458 18.4368 0
171 1 12.5946 18.6418 0
172 1 13.1405 19.9981 0
173 1 14.5875 20.204 0
174 1 10.7914 20.9432 0
175 1 12.2391 21.1487 0
176 1 12.7852 22.5058 0
177 1 14.2304 22.7123 0
178 1 10.44 23.4485 0
179 1 11.885 23.6555 0
180 1 12.4299 25.0145 0
181 1 13.8716 25.2228 0
182 1 10.0856 25.951 0
183 1 11.5297 26.1633 0
184 1 12.074 27.5296 0
185 1 13.5103 27.737 0
186 1 9.75375 28.4229 0
187 1 11.1655 28.6784 0
188 1 20.3758 0.589321 0
189 1 21.8138 0.748518 0
190 1 18.013 1.50037 0
191 1 19.4524 1.70495 0
192 1 19.995 3.0605 0
193 1 21.4465 3.26352 0
194 1 17.6472 4.00491 0
195 1 19.0932 4.21137 0
196 1 19.637 5.56678 0
197 1 21.0839 5.77311 0
198 1 17.2847 6.51042 0
199 1 18.733 6.71747 0
200 1 19.2768 8.07483 0
201 1 20.7238 8.2823 0
202 1 16.9248 9.01813 0
203 1 18.3731 9.22525 0
204 1 18.9174 10.5833 0
205 1 20.3648 10.7912 0
206 1 16.5657 11.5268 0
207 1 18.0138 11.7338 0
208 1 18.5582 13.0919 0
209 1 20.0059 13.2997 0
210 1 16.2068 14.0359 0
211 1 17.6546 14.2426 0
212 1 18.1991 15.6005 0
213 1 19.6468 15.8079 0
214 1 15.8482 16.5447 0
215 1 17.2957 16.7512 0
216 1 17.8403 18.1087 0
217 1 19.2876 18.3158 0
218 1 15.4901 19.0531 0
219 1 16.9372 19.2594 0
220 1 17.4815 20.6165 0
221 1 18.9283 20.8232 0
222 1 15.1325 21.5613 0
223 1 16.5785 21.7674 0
224 1 17.1224 23.1244 0
225 1 18.5687 23.33 0
226 1 14.7746 24.0708 0
227 1 16.2188 24.2765 0
228 1 16.7616 25.6336 0
229 1 18.2118 25.8357 0
230 1 14.4129 26.584 0
231 1 15.8517 26.7908 0
232 1 16.3945 28.1498 0
233 1 17.8322 28.3074 0
234 1 14.0472 29.0974 0
235 1 15.4939 29.3071 0
236 1 22.7126 -0.406886 0
237 1 24.1601 -0.196846 0
238 1 24.7 1.16276 0
239 1 26.1395 1.36952 0
240 1 22.3571 2.10722 0
241 1 23.7973 2.31506 0
242 1 24.3378 3.67588 0
243 1 25.7799 3.88499 0
244 1 21.9886 4.6212 0
245 1 23.433 4.82832 0
246 1 23.9753 6.18864 0
247 1 25.418 6.39725 0
248 1 21.6272 7.13168 0
249 1 23.0723 7.33965 0
250 1 23.6162 8.70008 0
251 1 25.0606 8.90907 0
252 1 21.2679 9.64128 0
253 1 22.7141 9.84979 0
254 1 23.2588 11.2097 0
255 1 24.7054 11.419 0
256 1 20.9091 12.15 0
257 1 22.3564 12.3586 0
258 1 22.9012 13.7175 0
259 1 24.3493 13.9267 0
260 1 20.5503 14.658 0
261 1 21.9981 14.8664 0
262 1 22.5425 16.2244 0
263 1 23.9906 16.4331 0
264 1 20.1911 17.1658 0
265 1 21.6388 17.3737 0
266 1 22.1826 18.7314 0
267 1 23.6298 18.9397 0
268 1 19.8317 19.6732 0
269 1 21.2789 19.8809 0
270 1 21.8221 21.2384 0
271 1 23.2683 21.447 0
272 1 19.4719 22.1799 0
273 1 20.9185 22.3875 0
274 1 21.4608 23.7448 0
275 1 22.9065 23.9546 0
276 1 19.1124 24.6851 0
277 1 20.5565 24.8922 0
278 1 21.0955 26.248 0
279 1 22.5446 26.4622 0
280 1 18.7543 27.1912 0
281 1 20.1919 27.3964 0
282 1 20.7615 28.7229 0
283 1 22.1826 28.9754 0
284 1 30.9117 -0.512162 0
285 1 27.0463 0.220349 0
286 1 28.4665 0.469542 0
287 1 29.0376 1.79384 0
288 1 30.4782 1.9934 0
289 1 26.6842 2.73373 0
290 1 28.131 2.94652 0
291 1 28.6651 4.30317 0
292 1 30.0995 4.51013 0
293 1 26.3206 5.24584 0
294 1 27.7608 5.45495 0
295 1 28.3014 6.81758 0
296 1 29.7374 7.02595 0
297 1 25.9612 7.75915 0
298 1 27.4026 7.96824 0
299 1 27.9486 9.33182 0
300 1 29.3903 9.54107 0
301 1 25.606 10.2706 0
302 1 27.0511 10.4803 0
303 1 27.5992 11.8422 0
304 1 29.0473 12.0523 0
305 1 25.2513 12.779 0
306 1 26.6996 12.9889 0
307 1 27.2465 14.348 0
308 1 28.6979 14.5586 0
309 1 24.8943 15.2849 0
310 1 26.3435 15.4946 0
311 1 26.8874 16.8517 0
312 1 28.3373 17.0619 0
313 1 24.5342 17.7906 0
314 1 25.982 17.9997 0
315 1 26.5237 19.357 0
316 1 27.9699 19.5664 0
317 1 24.1725 20.2975 0
318 1 25.6183 20.5064 0
319 1 26.1596 21.8649 0
320 1 27.6037 22.0738 0
321 1 23.8105 22.8055 0
322 1 25.2552 23.0146 0
323 1 25.797 24.3741 0
324 1 27.2413 24.5826 0
325 1 23.4484 25.3139 0
326 1 24.8923 25.5241 0
327 1 25.433 26.8846 0
328 1 26.8737 27.094 0
329 1 23.0899 27.827 0
330 1 24.5302 28.0349 0
331 1 25.0697 29.3943 0
332 1 26.5166 29.6046 0
333 1 33.7771 -0.0926204 0
334 1 35.2532 0.11492 0
335 1 31.4004 0.846879 0
336 1 32.8504 1.06162 0
337 1 33.3683 2.40972 0
338 1 34.804 2.63831 0
339 1 31.0083 3.35341 0
340 1 32.4398 3.5652 0
341 1 32.959 4.92843 0
342 1 34.3688 5.13577 0
343 1 30.635 5.87346 0
344 1 32.0618 6.08107 0
345 1 32.6055 7.44812 0
346 1 34.0315 7.65342 0
347 1 30.2832 8.39159 0
348 1 31.7183 8.59921 0
349 1 32.2737 9.96562 0
350 1 33.7134 10.1683 0
351 1 29.9419 10.9058 0
352 1 31.3881 11.1146 0
353 1 31.9476 12.4796 0
354 1 33.4043 12.6877 0
355 1 29.5986 13.4136 0
356 1 31.0533 13.6248 0
357 1 31.6061 14.9853 0
358 1 33.0707 15.2003 0
359 1 29.2441 15.9159 0
360 1 30.6993 16.128 0
361 1 31.2405 17.4828 0
362 1 32.6976 17.6994 0
363 1 28.8779 18.4178 0
364 1 30.3265 18.6291 0
365 1 30.8606 19.9841 0
366 1 32.3019 20.1964 0
367 1 28.5089 20.924 0
368 1 29.9519 21.1335 0
369 1 30.49 22.4921 0
370 1 31.9287 22.7006 0
371 1 28.1449 23.4329 0
372 1 29.5884 23.6411 0
373 1 30.1329 24.9996 0
374 1 31.5748 25.2076 0
375 1 27.7838 25.9411 0
376 1 29.2355 26.1467 0
377 1 29.7796 27.5047 0
378 1 31.2232 27.7184 0
379 1 27.4159 28.4521 0
380 1 28.8532 28.6158 0
381 1 38.4125 0.850312 0
382 1 35.8025 1.49682 0
383 1 37.335 1.84005 0
384 1 37.6549 3.22776 0
385 1 35.2699 3.99286 0
386 1 36.6307 4.24115 0
387 1 37.1614 5.53987 0
388 1 34.9131 6.50373 0
389 1 36.3408 6.70391 0
390 1 36.8667 8.03613 0
391 1 34.5881 9.01374 0
392 1 36.0193 9.2014 0
393 1 36.582 10.5249 0
394 1 37.9997 10.6914 0
395 1 34.2839 11.5322 0
396 1 35.7352 11.718 0
397 1 36.3269 13.1215 0
398 1 37.7775 13.3973 0
399 1 33.9703 14.0581 0
400 1 35.4389 14.2745 0
401 1 36.016 15.6699 0
402 1 37.5263 15.9126 0
403 1 33.6203 16.5625 0
404 1 35.1014 16.7921 0
405 1 35.6353 18.1491 0
406 1 37.1601 18.4171 0
407 1 33.2237 19.0495 0
408 1 34.6707 19.2767 0
409 1 35.1601 20.6189 0
410 1 36.5482 20.8516 0
411 1 32.8299 21.5528 0
412 1 34.2578 21.7597 0
413 1 34.8038 23.1174 0
414 1 36.2477 23.3195 0
415 1 32.4718 24.0595 0
416 1 33.911 24.2654 0
417 1 34.4612 25.6196 0
418 1 35.908 25.8131 0
419 1 32.1227 26.5663 0
420 1 33.5696 26.7683 0
421 1 34.1248 28.1169 0
422 1 35.5749 28.309 0
423 1 31.776 29.07 0
424 1 33.2289 29.2749 0
425 1 38.1362 17.3056 0
426 1 37.5721 19.8051 0
427 1 37.0926 22.1554 0
428 1 36.7624 24.6543 0
429 1 36.4647 27.1411 0
430 1 37.9243 27.3324 0
431 1 36.1007 29.6734 0
432 1 38.5338 22.0017 0
433 1 38.9742 24.4241 0
434 1 39.3581 26.9168 0
435 1 39.7852 29.3134 0
436 1 39.9651 1.0215 0
437 1 38.9847 3.96508 0
438 1 40.3974 3.62592 0
439 1 38.5772 5.38356 0
440 1 39.4639 6.43326 0
441 1 40.8692 6.15982 0
442 1 38.9822 7.76856 0
443 1 39.848 8.87181 0
444 1 41.2766 8.62818 0
445 1 39.3748 10.2156 0
446 1 40.2681 11.2685 0
447 1 41.6583 11.0721 0
448 1 39.741 12.5466 0
449 1 40.518 13.6869 0
450 1 41.9344 13.5598 0
451 1 38.3849 14.77 0
452 1 39.8479 14.9164 0
453 1 40.5968 16.1751 0
454 1 42.1201 16.0661 0
455 1 39.87 17.4938 0
456 1 40.8533 18.7878 0
457 1 42.3946 18.591 0
458 1 38.9343 20.5588 0
459 1 40.3667 20.2028 0
460 1 41.357 21.3696 0
461 1 42.8114 21.1349 0
462 1 39.4439 23.066 0
463 1 40.8656 22.782 0
464 1 41.8038 23.9087 0
465 1 43.2396 23.669 0
466 1 39.8482 25.5461 0
467 1 41.2924 25.2913 0
468 1 42.2169 26.4125 0
469 1 43.647 26.1823 0
470 1 40.2819 27.9918 0
471 1 41.6984 27.7669 0
472 1 42.5964 28.9124 0
473 1 44.0246 28.6979 0
474 1 40.6056 -0.281361 0
475 1 42.0475 -0.463202 0
476 1 42.933 0.676065 0
477 1 44.3891 0.462801 0
478 1 40.8852 2.24283 0
479 1 42.3757 2.03091 0
480 1 43.3014 3.17977 0
481 1 44.7485 2.96032 0
482 1 41.3591 4.77061 0
483 1 42.7895 4.53754 0
484 1 43.7173 5.68126 0
485 1 45.1494 5.46332 0
486 1 41.7881 7.27197 0
487 1 43.2054 7.04207 0
488 1 44.1166 8.17978 0
489 1 45.5373 7.96693 0
490 1 42.1826 9.74406 0
491 1 43.5919 9.53285 0
492 1 44.4801 10.6791 0
493 1 45.8986 10.4754 0
494 1 42.5189 12.22 0
495 1 43.9299 12.0344 0
496 1 44.7908 13.1867 0
497 1 46.2243 12.9893 0
498 1 42.7558 14.7226 0
499 1 44.2073 14.5475 0
500 1 45.0694 15.6982 0
501 1 46.5307 15.4992 0
502 1 42.9829 17.2414 0
503 1 44.4815 17.0534 0
504 1 45.3778 18.2059 0
505 1 46.8536 18.0004 0
506 1 43.3349 19.7674 0
507 1 44.8206 19.5582 0
508 1 45.7433 20.7138 0
509 1 47.2101 20.5023 0
510 1 43.7545 22.2934 0
511 1 45.2102 22.0733 0
512 1 46.1355 23.2249 0
513 1 47.5883 23.0093 0
514 1 44.1681 24.8126 0
515 1 45.6089 24.589 0
516 1 46.5276 25.7349 0
517 1 47.9699 25.5177 0
518 1 44.5607 27.3249 0
519 1 46.001 27.0995 0
520 1 46.9114 28.2432 0
521 1 48.3455 28.0253 0
522 1 44.9264 29.8402 0
523 1 46.3491 29.58 0
524 1 45.2852 1.60568 0
525 1 46.7203 1.43443 0
526 1 47.6512 2.53867 0
527 1 49.0872 2.32304 0
528 1 45.6725 4.10828 0
529 1 47.1193 3.89558 0
530 1 48.0273 5.0402 0
531 1 49.464 4.82613 0
532 1 46.0635 6.60937 0
533 1 47.4957 6.39695 0
534 1 48.4006 7.54447 0
535 1 49.8347 7.33221 0
536 1 46.4376 9.1148 0
537 1 47.8646 8.90537 0
538 1 48.7599 10.0538 0
539 1 50.1942 9.8429 0
540 1 46.7821 11.6249 0
541 1 48.2136 11.4182 0
542 1 49.1013 12.5652 0
543 1 50.5418 12.3545 0
544 1 47.1002 14.1367 0
545 1 48.5456 13.9302 0
546 1 49.4341 15.0744 0
547 1 50.8838 14.863 0
548 1 47.4167 16.6442 0
549 1 48.8764 16.4358 0
550 1 49.7732 17.5794 0
551 1 51.2294 17.3672 0
552 1 47.7577 19.1474 0
553 1 49.2212 18.9369 0
554 1 50.1273 20.0823 0
555 1 51.5841 19.8697 0
556 1 48.1251 21.6516 0
557 1 49.5831 21.4393 0
558 1 50.4941 22.5865 0
559 1 51.9475 22.3734 0
560 1 48.5041 24.1581 0
561 1 49.9552 23.9449 0
562 1 50.8671 25.0927 0
563 1 52.3162 24.8795 0
564 1 48.8793 26.6638 0
565 1 50.3305 26.4523 0
566 1 51.2458 27.6031 0
567 1 52.6873 27.3889 0
568 1 49.2732 29.1316 0
569 1 50.7066 28.964 0
570 1 51.6047 30.1137 0
571 1 53.0521 29.8989 0
572 1 49.6518 0.991749 0
573 1 51.0744 0.734167 0
574 1 51.9826 1.87938 0
575 1 53.4213 1.6666 0
576 1 49.9957 3.46714 0
577 1 51.4409 3.24733 0
578 1 52.3465 4.39301 0
579 1 53.7863 4.17762 0
580 1 50.3707 5.97084 0
581 1 51.8091 5.75597 0
582 1 52.7129 6.90223 0
583 1 54.1527 6.68767 0
584 1 50.7357 8.47913 0
585 1 52.1732 8.26582 0
586 1 53.0733 9.41181 0
587 1 54.5142 9.19743 0
588 1 51.0897 10.9894 0
589 1 52.5297 10.7764 0
590 1 53.4273 11.9211 0
591 1 54.8711 11.7064 0
592 1 51.4352 13.4991 0
593 1 52.8805 13.2857 0
594 1 53.7784 14.429 0
595 1 55.2259 14.2138 0
596 1 51.78 16.0061 0
597 1 53.2305 15.7921 0
598 1 54.131 16.9348 0
599 1 55.5814 16.7194 0
600 1 52.131 18.5105 0
601 1 53.5843 18.2964 0
602 1 54.4878 19.4396 0
603 1 55.9392 19.224 0
604 1 52.4903 21.0145 0
605 1 53.9432 20.8003 0
606 1 54.8491 21.9442 0
607 1 56.3 21.7283 0
608 1 52.8562 23.5195 0
609 1 54.3069 23.3049 0
610 1 55.2141 24.4492 0
611 1 56.6642 24.2324 0
612 1 53.2257 26.0265 0
613 1 54.6734 25.8109 0
614 1 55.58 26.955 0
615 1 57.0332 26.7338 0
616 1 53.5918 28.5361 0
617 1 55.0346 28.3232 0
618 1 55.9414 29.468 0
619 1 57.3676 29.2102 0
620 1 53.9605 0.303414 0
621 1 55.4074 0.0890937 0
622 1 56.3019 1.23842 0
623 1 57.7331 1.06924 0
624 1 54.324 2.81384 0
625 1 55.7616 2.59927 0
626 1 56.6728 3.74791 0
627 1 58.1229 3.53488 0
628 1 54.6918 5.32423 0
629 1 56.1337 5.10983 0
630 1 57.0382 6.25479 0
631 1 58.4826 6.03948 0
632 1 55.0555 7.83326 0
633 1 56.4977 7.61822 0
634 1 57.4005 8.76274 0
635 1 58.8448 8.5469 0
636 1 55.4149 10.3421 0
637 1 56.8586 10.1266 0
638 1 57.7607 11.2704 0
639 1 59.2064 11.0542 0
640 1 55.7712 12.85 0
641 1 57.2174 12.6341 0
642 1 58.1196 13.777 0
643 1 59.5674 13.5605 0
644 1 56.1269 15.3565 0
645 1 57.5755 15.1403 0
646 1 58.4785 16.2826 0
647 1 59.928 16.0657 0
648 1 56.484 17.8619 0
649 1 57.9342 17.6454 0
650 1 58.8378 18.7874 0
651 1 60.2882 18.5701 0
652 1 56.8434 20.3666 0
653 1 58.294 20.1499 0
654 1 59.1984 21.2916 0
655 1 60.6483 21.0743 0
656 1 57.2055 22.8708 0
657 1 58.6555 22.6539 0
658 1 59.5605 23.796 0
659 1 61.0089 23.5789 0
660 1 57.5711 25.3741 0
661 1 59.0186 25.158 0
662 1 59.9234 26.3016 0
663 1 61.3708 26.0843 0
664 1 57.9384 27.8764 0
665 1 59.3815 27.6665 0
666 1 60.2884 28.8021 0
667 1 61.7317 28.586 0
668 1 59.7887 -0.578637 0
669 1 60.6473 0.585991 0
670 1 62.0919 0.372828 0
671 1 58.6609 2.17213 0
672 1 60.1002 1.94678 0
673 1 61.0072 3.09481 0
674 1 62.4529 2.88093 0
675 1 59.024 4.67694 0
676 1 60.467 4.45975 0
677 1 61.3716 5.60345 0
678 1 62.8167 5.38708 0
679 1 59.3859 7.18351 0
680 1 60.8308 6.96717 0
681 1 61.7351 8.11078 0
682 1 63.1809 7.89418 0
683 1 59.7483 9.69064 0
684 1 61.1942 9.47424 0
685 1 62.0989 10.6178 0
686 1 63.5459 10.4012 0
687 1 60.1101 12.1973 0
688 1 61.5576 11.9807 0
689 1 62.4628 13.1238 0
690 1 63.9119 12.9072 0
691 1 60.4714 14.703 0
692 1 61.9207 14.4861 0
693 1 62.826 15.6284 0
694 1 64.2775 15.4115 0
695 1 60.8321 17.2076 0
696 1 62.2828 16.9903 0
697 1 63.1873 18.1317 0
698 1 64.6397 17.9147 0
699 1 61.1922 19.7115 0
700 1 62.6428 19.4941 0
701 1 63.546 20.6354 0
702 1 64.9969 20.4187 0
703 1 61.5521 22.2158 0
704 1 63.0011 21.9986 0
705 1 63.9032 23.1407 0
706 1 65.3508 22.9246 0
707 1 61.9126 24.7213 0
708 1 63.3592 24.5048 0
709 1 64.2616 25.6481 0
710 1 65.7046 25.4317 0
711 1 62.2743 27.2273 0
712 1 63.7198 27.0136 0
713 1 64.6254 28.1618 0
714 1 66.0635 27.9375 0
715 1 62.6344 29.7357 0
716 1 64.0786 29.5225 0
717 1 64.9377 -0.0555224 0
718 1 62.995 1.52246 0
719 1 64.4382 1.30619 0
720 1 65.3452 2.44186 0
721 1 66.7882 2.23218 0
722 1 63.3571 4.02403 0
723 1 64.8035 3.80679 0
724 1 65.708 4.95073 0
725 1 67.1536 4.73457 0
726 1 63.7214 6.53058 0
727 1 65.167 6.31389 0
728 1 66.0718 7.45722 0
729 1 67.5167 7.24013 0
730 1 64.0861 9.03797 0
731 1 65.5319 8.82125 0
732 1 66.4382 9.96539 0
733 1 67.8828 9.74834 0
734 1 64.4522 11.5451 0
735 1 65.8999 11.3285 0
736 1 66.8091 12.4731 0
737 1 68.2575 12.2563 0
738 1 64.8191 14.0505 0
739 1 66.2706 13.834 0
740 1 67.1809 14.978 0
741 1 68.6363 14.7617 0
742 1 65.1841 16.5537 0
743 1 66.6387 16.3374 0
744 1 67.5459 17.4802 0
745 1 69.0056 17.2652 0
746 1 65.5436 19.0563 0
747 1 66.9981 18.8406 0
748 1 67.8992 19.9831 0
749 1 69.3555 19.7702 0
750 1 65.8977 21.5609 0
751 1 67.348 21.3463 0
752 1 68.2446 22.4903 0
753 1 69.6918 22.2792 0
754 1 66.25 24.0682 0
755 1 67.6956 23.8548 0
756 1 68.5933 25.001 0
757 1 70.0328 24.7904 0
758 1 66.6027 26.5746 0
759 1 68.0508 26.3635 0
760 1 68.9592 27.5141 0
761 1 70.3925 27.3018 0
762 1 66.9896 29.042 0
763 1 68.4202 28.8742 0
764 1 69.317 30.0245 0
765 1 70.7633 29.8104 0
766 1 67.3595 0.899689 0
767 1 68.7858 0.642725 0
768 1 69.6948 1.78712 0
769 1 71.1433 1.57424 0
770 1 67.6928 3.37431 0
771 1 69.1474 3.15305 0
772 1 70.0511 4.29491 0
773 1 71.5037 4.07982 0
774 1 68.058 5.87561 0
775 1 69.505 5.65805 0
776 1 70.405 6.79953 0
777 1 71.8489 6.58409 0
778 1 68.4208 8.38311 0
779 1 69.8625 8.16555 0
780 1 70.7656 9.30848 0
781 1 72.1998 9.08987 0
782 1 68.7915 10.8934 0
783 1 70.2331 10.6754 0
784 1 71.148 11.8221 0
785 1 72.5844 11.5999 0
786 1 69.1722 13.4025 0
787 1 70.6231 13.1844 0
788 1 71.549 14.3327 0
789 1 73.0091 14.1101 0
790 1 69.5507 15.9067 0
791 1 71.0144 15.6906 0
792 1 71.9326 16.8366 0
793 1 73.4122 16.6209 0
794 1 69.9109 18.4089 0
795 1 71.3778 18.197 0
796 1 72.2749 19.3453 0
797 1 73.7487 19.1439 0
798 1 70.2494 20.9148 0
799 1 71.705 20.7082 0
800 1 72.5843 21.8592 0
801 1 74.0304 21.6708 0
802 1 70.5817 23.4264 0
803 1 72.0206 23.2209 0
804 1 72.9046 24.3709 0
805 1 74.3312 24.1695 0
806 1 70.93 25.9394 0
807 1 72.3615 25.729 0
808 1 73.2614 26.8737 0
809 1 74.6933 26.6544 0
810 1 71.2959 28.4503 0
811 1 72.7281 28.2373 0
812 1 73.6441 29.3788 0
813 1 75.0567 29.115 0
814 1 71.6795 0.215279 0
815 1 73.1315 -0.00360925 0
816 1 74.0484 1.14605 0
817 1 75.5009 0.981198 0
818 1 72.0512 2.72093 0
819 1 73.5094 2.50891 0
820 1 74.428 3.67241 0
821 1 75.9269 3.47835 0
822 1 72.4022 5.2233 0
823 1 73.8597 5.01958 0
824 1 74.7386 6.1637 0
825 1 76.1841 5.98217 0
826 1 72.7422 7.72369 0
827 1 74.1804 7.5091 0
828 1 75.067 8.6376 0
829 1 76.5136 8.42445 0
830 1 73.102 10.2287 0
831 1 74.5191 10.0052 0
832 1 75.4154 11.1265 0
833 1 76.781 10.8854 0
834 1 73.5175 12.7485 0
835 1 74.9506 12.5075 0
836 1 75.9497 13.6637 0
837 1 77.4621 13.3538 0
838 1 73.9549 15.2591 0
839 1 75.446 15.0264 0
840 1 76.4034 16.1539 0
841 1 77.9418 15.8445 0
842 1 74.325 17.771 0
843 1 75.8251 17.567 0
844 1 76.6648 18.7819 0
845 1 74.6264 20.3153 0
846 1 76.1064 20.1477 0
847 1 76.9363 21.3941 0
848 1 74.8861 22.8313 0
849 1 76.2985 22.6646 0
850 1 77.217 23.7653 0
851 1 75.2208 25.3074 0
852 1 76.6456 25.1092 0
853 1 77.5033 26.2112 0
854 1 75.6032 27.7862 0
855 1 77.029 27.5575 0
856 1 77.9553 28.6994 0
857 1 76.4144 2.1094 0
858 1 76.8341 4.69502 0
859 1 77.1012 7.08266 0
860 1 77.3544 9.52487 0
861 1 77.6815 11.94 0
