ITEM: TIMESTEP
123
ITEM: NUMBER OF ATOMS
1024
ITEM: BOX BOUNDS pp pp ff
-1.0018629731099413e+00 6.9161862973110033e+01
-5.6286622323945767e-01 3.9915060223239450e+01
-2.0000000000000000e+01 2.0000000000000000e+01
ITEM: ATOMS id type x y z
1 1 -1.00186 -0.562297 0
2 1 0.459111 -0.560737 0
3 1 1.18998 0.705326 0
4 1 2.65102 0.706882 0
5 1 -1.00097 1.96728 0
6 1 0.459997 1.96883 0
7 1 1.19076 3.23487 0
8 1 2.65181 3.23641 0
9 1 -1.00024 4.4969 0
10 1 0.460659 4.49844 0
11 1 1.19126 5.76444 0
12 1 2.65225 5.76597 0
13 1 -0.999799 7.02659 0
14 1 0.460994 7.02812 0
15 1 1.19138 8.2941 0
16 1 2.65227 8.2956 0
17 1 -0.999708 9.55639 0
18 1 0.460952 9.55789 0
19 1 1.1911 10.8239 0
20 1 2.65184 10.8253 0
21 1 -0.999992 12.0863 0
22 1 0.460526 12.0878 0
23 1 1.19047 13.3537 0
24 1 2.65103 13.3552 0
25 1 -1.00061 14.6163 0
26 1 0.459776 14.6178 0
27 1 1.18957 15.8838 0
28 1 2.64995 15.8852 0
29 1 -1.00147 17.1465 0
30 1 0.458822 17.1479 0
31 1 1.18854 18.4139 0
32 1 2.64879 18.4154 0
33 1 69.1613 19.6766 0
34 1 0.457815 19.6781 0
35 1 1.18755 20.9441 0
36 1 2.64772 20.9456 0
37 1 69.1604 22.2068 0
38 1 0.45691 22.2083 0
39 1 1.18676 23.4744 0
40 1 2.64693 23.4758 0
41 1 69.1596 24.737 0
42 1 0.45625 24.7384 0
43 1 1.18628 26.0045 0
44 1 2.64652 26.006 0
45 1 69.1592 27.267 0
46 1 0.45594 27.2685 0
47 1 1.1862 28.5346 0
48 1 2.64656 28.5361 0
49 1 69.1592 29.7969 0
50 1 0.456016 29.7984 0
51 1 1.1865 31.0646 0
52 1 2.64703 31.0661 0
53 1 69.1595 32.3267 0
54 1 0.45646 32.3283 0
55 1 1.18714 33.5944 0
56 1 2.64785 33.596 0
57 1 69.1601 34.8564 0
58 1 0.457204 34.858 0
59 1 1.18803 36.1241 0
60 1 2.64888 36.1257 0
61 1 69.1609 37.3861 0
62 1 0.458135 37.3876 0
63 1 1.18902 38.6537 0
64 1 2.65 38.6553 0
65 1 3.38094 -0.556587 0
66 1 4.84203 -0.555031 0
67 1 5.57304 0.711004 0
68 1 7.03431 0.71254 0
69 1 3.38189 1.9729 0
70 1 4.84306 1.97445 0
71 1 5.57392 3.24041 0
72 1 7.03529 3.24194 0
73 1 3.38252 4.50238 0
74 1 4.84371 4.50391 0
75 1 5.57433 5.76981 0
76 1 7.0357 5.77134 0
77 1 3.38273 7.0319 0
78 1 4.84386 7.03342 0
79 1 5.57419 8.29926 0
80 1 7.03546 8.30079 0
81 1 3.38249 9.5615 0
82 1 4.84347 9.56301 0
83 1 5.5735 10.8288 0
84 1 7.03457 10.8303 0
85 1 3.38181 12.0912 0
86 1 4.8426 12.0927 0
87 1 5.57235 13.3586 0
88 1 7.03313 13.3601 0
89 1 3.3808 14.6211 0
90 1 4.84135 14.6226 0
91 1 5.57091 15.8885 0
92 1 7.03136 15.89 0
93 1 3.37961 17.1512 0
94 1 4.83992 17.1527 0
95 1 5.56942 18.4187 0
96 1 7.02956 18.4202 0
97 1 3.37843 19.6814 0
98 1 4.83856 19.6829 0
99 1 5.56813 20.949 0
100 1 7.02804 20.9505 0
101 1 3.37746 22.2117 0
102 1 4.83749 22.2132 0
103 1 5.56725 23.4794 0
104 1 7.02706 23.481 0
105 1 3.37685 24.742 0
106 1 4.83688 24.7435 0
107 1 5.56693 26.0098 0
108 1 7.02678 26.0114 0
109 1 3.3767 27.2722 0
110 1 4.83682 27.2738 0
111 1 5.56718 28.5401 0
112 1 7.02721 28.5417 0
113 1 3.377 29.8024 0
114 1 4.8373 29.8039 0
115 1 5.56795 31.0702 0
116 1 7.02823 31.0718 0
117 1 3.3777 32.3323 0
118 1 4.83822 32.3339 0
119 1 5.5691 33.6001 0
120 1 7.02967 33.6017 0
121 1 3.37869 34.8621 0
122 1 4.83943 34.8637 0
123 1 5.57046 36.1299 0
124 1 7.03131 36.1314 0
125 1 3.37982 37.3918 0
126 1 4.84076 37.3933 0
127 1 5.57183 38.6595 0
128 1 7.03292 38.661 0
129 1 7.76413 -0.550856 0
130 1 9.22547 -0.54935 0
131 1 9.95681 0.716654 0
132 1 11.4185 0.718105 0
133 1 7.76538 1.97852 0
134 1 9.22691 1.98003 0
135 1 9.95801 3.24593 0
136 1 11.4199 3.24742 0
137 1 7.76611 4.50783 0
138 1 9.22773 4.50936 0
139 1 9.95848 5.77517 0
140 1 11.4204 5.77671 0
141 1 7.76619 7.03715 0
142 1 9.22779 7.0387 0
143 1 9.9581 8.30443 0
144 1 11.4199 8.30601 0
145 1 7.76558 9.56655 0
146 1 9.22701 9.5681 0
147 1 9.95684 10.8338 0
148 1 11.4184 10.8354 0
149 1 7.76432 12.0961 0
150 1 9.22544 12.0977 0
151 1 9.95483 13.3634 0
152 1 11.4159 13.3651 0
153 1 7.7626 14.6259 0
154 1 9.22329 14.6275 0
155 1 9.95237 15.8933 0
156 1 11.4128 15.895 0
157 1 7.76067 17.1559 0
158 1 9.2209 17.1575 0
159 1 9.9499 18.4235 0
160 1 11.4097 18.4252 0
161 1 7.75888 19.6863 0
162 1 9.21872 19.6879 0
163 1 9.94786 20.9541 0
164 1 11.4072 20.9558 0
165 1 7.75755 22.2168 0
166 1 9.21714 22.2184 0
167 1 9.94665 23.4848 0
168 1 11.4058 23.4865 0
169 1 7.7569 24.7473 0
170 1 9.21644 24.7489 0
171 1 9.94645 26.0154 0
172 1 11.4057 26.0171 0
173 1 7.75701 27.2778 0
174 1 9.21669 27.2794 0
175 1 9.94721 28.5459 0
176 1 11.4068 28.5475 0
177 1 7.75781 29.8081 0
178 1 9.21778 29.8097 0
179 1 9.94874 31.0761 0
180 1 11.4087 31.0777 0
181 1 7.75915 32.3381 0
182 1 9.21948 32.3397 0
183 1 9.95075 33.606 0
184 1 11.4112 33.6075 0
185 1 7.7608 34.868 0
186 1 9.22151 34.8695 0
187 1 9.95294 36.1357 0
188 1 11.4139 36.1372 0
189 1 7.76254 37.3976 0
190 1 9.22359 37.3991 0
191 1 9.95505 38.6652 0
192 1 11.4164 38.6666 0
193 1 12.1481 -0.545256 0
194 1 13.6098 -0.543937 0
195 1 14.3417 0.721989 0
196 1 15.8038 0.723151 0
197 1 12.1499 1.98403 0
198 1 13.612 1.98541 0
199 1 14.3435 3.2513 0
200 1 15.806 3.25262 0
201 1 12.151 4.51326 0
202 1 13.6132 4.51474 0
203 1 14.3442 5.78058 0
204 1 15.8069 5.78211 0
205 1 12.151 7.04247 0
206 1 13.6133 7.04405 0
207 1 14.3437 8.30982 0
208 1 15.8064 8.31155 0
209 1 12.15 9.5717 0
210 1 13.612 9.5734 0
211 1 14.3416 10.8391 0
212 1 15.804 10.8409 0
213 1 12.1478 12.1011 0
214 1 13.6094 12.1028 0
215 1 14.3382 13.3684 0
216 1 15.7997 13.3704 0
217 1 12.1448 14.6308 0
218 1 13.6056 14.6325 0
219 1 14.3337 15.8983 0
220 1 15.794 15.9003 0
221 1 12.1414 17.1608 0
222 1 13.6013 17.1626 0
223 1 14.3291 18.4287 0
224 1 15.7881 18.4308 0
225 1 12.1383 19.6914 0
226 1 13.5973 19.6932 0
227 1 14.3255 20.9597 0
228 1 15.7834 20.9618 0
229 1 12.1362 22.2222 0
230 1 13.5948 22.2241 0
231 1 14.3237 23.4909 0
232 1 15.7813 23.4929 0
233 1 12.1354 24.7531 0
234 1 13.594 24.7549 0
235 1 14.3239 26.0218 0
236 1 15.7819 26.0237 0
237 1 12.136 27.2838 0
238 1 13.595 27.2855 0
239 1 14.3258 28.5523 0
240 1 15.7846 28.554 0
241 1 12.1377 29.8141 0
242 1 13.5972 29.8157 0
243 1 14.3288 31.0822 0
244 1 15.7885 31.0836 0
245 1 12.1401 32.3441 0
246 1 13.6003 32.3456 0
247 1 14.3323 33.6118 0
248 1 15.7928 33.613 0
249 1 12.1429 34.8738 0
250 1 13.6037 34.8752 0
251 1 14.3358 36.1413 0
252 1 15.797 36.1423 0
253 1 12.1456 37.4033 0
254 1 13.6069 37.4046 0
255 1 14.339 38.6706 0
256 1 15.8007 38.6717 0
257 1 16.5331 -0.540405 0
258 1 17.9953 -0.539617 0
259 1 18.7279 0.726153 0
260 1 20.1905 0.72661 0
261 1 16.5359 1.98905 0
262 1 17.9985 1.99004 0
263 1 18.7307 3.25601 0
264 1 20.1938 3.25691 0
265 1 16.5376 4.51855 0
266 1 18.0005 4.51988 0
267 1 18.7322 5.786 0
268 1 20.1958 5.78745 0
269 1 16.5379 7.04801 0
270 1 18.0011 7.0497 0
271 1 18.732 8.31582 0
272 1 20.196 8.31792 0
273 1 16.5364 9.57732 0
274 1 17.9997 9.57935 0
275 1 18.7292 10.8453 0
276 1 20.1932 10.848 0
277 1 16.5329 12.1065 0
278 1 17.9956 12.1089 0
279 1 18.7234 13.3747 0
280 1 20.1863 13.3779 0
281 1 16.5275 14.636 0
282 1 17.9888 14.6385 0
283 1 18.715 15.9044 0
284 1 20.1756 15.9078 0
285 1 16.521 17.1662 0
286 1 17.9804 17.1688 0
287 1 18.7058 18.4352 0
288 1 20.1635 18.4387 0
289 1 16.515 19.6972 0
290 1 17.9726 19.6998 0
291 1 18.6988 20.967 0
292 1 20.1543 20.9703 0
293 1 16.5113 22.2288 0
294 1 17.9679 22.2313 0
295 1 18.6961 23.4989 0
296 1 20.1513 23.5017 0
297 1 16.5106 24.7601 0
298 1 17.9674 24.7624 0
299 1 18.6976 26.0298 0
300 1 20.1541 26.032 0
301 1 16.5126 27.2908 0
302 1 17.9703 27.2927 0
303 1 18.7022 28.5595 0
304 1 20.1604 28.561 0
305 1 16.5163 29.8206 0
306 1 17.9753 29.8221 0
307 1 18.708 31.0882 0
308 1 20.1678 31.0891 0
309 1 16.5208 32.3499 0
310 1 17.981 32.3509 0
311 1 18.714 33.6166 0
312 1 20.1749 33.6171 0
313 1 16.5253 34.879 0
314 1 17.9864 34.8798 0
315 1 18.7194 36.1453 0
316 1 20.1811 36.1455 0
317 1 16.5295 37.4082 0
318 1 17.9912 37.4089 0
319 1 18.7241 38.6745 0
320 1 20.1863 38.6747 0
321 1 20.9194 -0.537783 0
322 1 22.382 -0.538109 0
323 1 23.1154 0.72733 0
324 1 24.5782 0.726409 0
325 1 20.9234 1.99246 0
326 1 22.3863 1.9926 0
327 1 23.1195 3.25886 0
328 1 24.5827 3.25864 0
329 1 20.9263 4.52322 0
330 1 22.3898 4.52406 0
331 1 23.1228 5.79112 0
332 1 24.5866 5.79192 0
333 1 20.9277 7.05411 0
334 1 22.392 7.05589 0
335 1 23.1241 8.32352 0
336 1 24.5892 8.32574 0
337 1 20.9266 9.58466 0
338 1 22.3916 9.5875 0
339 1 23.1219 10.8553 0
340 1 24.5883 10.8593 0
341 1 20.9217 12.1146 0
342 1 22.3867 12.1184 0
343 1 23.1138 13.3857 0
344 1 24.5804 13.3914 0
345 1 20.9123 14.644 0
346 1 22.3753 14.6485 0
347 1 23.0982 15.915 0
348 1 24.561 15.9219 0
349 1 20.8994 17.1741 0
350 1 22.3583 17.1789 0
351 1 23.0782 18.4458 0
352 1 24.5327 18.4531 0
353 1 20.887 19.7058 0
354 1 22.3415 19.7104 0
355 1 23.0633 20.9791 0
356 1 24.5123 20.9851 0
357 1 20.8803 22.2384 0
358 1 22.3332 22.2423 0
359 1 23.0607 23.5112 0
360 1 24.5116 23.5152 0
361 1 20.8807 24.7697 0
362 1 22.3352 24.7725 0
363 1 23.0674 26.0397 0
364 1 24.5231 26.0414 0
365 1 20.8862 27.2989 0
366 1 22.3434 27.3005 0
367 1 23.0778 28.5658 0
368 1 24.5372 28.5656 0
369 1 20.8938 29.8268 0
370 1 22.3533 29.8273 0
371 1 23.0882 31.0915 0
372 1 24.5495 31.0903 0
373 1 20.9016 32.3542 0
374 1 22.3626 32.3541 0
375 1 23.0971 33.618 0
376 1 24.5592 33.6164 0
377 1 20.9086 34.882 0
378 1 22.3703 34.8815 0
379 1 23.1044 36.1457 0
380 1 24.5668 36.1441 0
381 1 20.9145 37.4106 0
382 1 22.3767 37.4101 0
383 1 23.1103 38.6748 0
384 1 24.573 38.6734 0
385 1 25.3067 -0.539797 0
386 1 26.7694 -0.542018 0
387 1 27.5032 0.722895 0
388 1 28.9657 0.719789 0
389 1 25.3118 1.99218 0
390 1 26.7745 1.99056 0
391 1 27.5085 3.25673 0
392 1 28.971 3.25401 0
393 1 25.3164 4.52559 0
394 1 26.7795 4.52475 0
395 1 27.5138 5.79228 0
396 1 28.9768 5.79021 0
397 1 25.3201 7.06001 0
398 1 26.7843 7.0605 0
399 1 27.5187 8.32975 0
400 1 28.9829 8.329 0
401 1 25.3217 9.59483 0
402 1 26.7879 9.59749 0
403 1 27.5218 10.869 0
404 1 28.9892 10.8713 0
405 1 25.3184 12.1288 0
406 1 26.7875 12.1346 0
407 1 27.5179 13.4079 0
408 1 28.9921 13.4169 0
409 1 25.305 14.6599 0
410 1 26.7749 14.6693 0
411 1 27.4941 15.9411 0
412 1 28.9713 15.9593 0
413 1 25.2774 17.189 0
414 1 26.7376 17.2013 0
415 1 27.4393 18.47 0
416 1 28.8864 18.4975 0
417 1 25.2464 19.7219 0
418 1 26.6909 19.7332 0
419 1 27.4005 21.0067 0
420 1 28.8283 21.0184 0
421 1 25.2353 22.2558 0
422 1 26.679 22.2623 0
423 1 27.4124 23.5312 0
424 1 28.861 23.5331 0
425 1 25.2442 24.7828 0
426 1 26.6972 24.7849 0
427 1 27.4374 26.0457 0
428 1 28.899 26.0406 0
429 1 25.2594 27.3053 0
430 1 26.7191 27.3038 0
431 1 27.4582 28.5627 0
432 1 28.9225 28.5561 0
433 1 25.2736 29.828 0
434 1 26.7359 29.8249 0
435 1 27.4729 31.0848 0
436 1 28.9369 31.0787 0
437 1 25.2851 32.3526 0
438 1 26.7479 32.3492 0
439 1 27.4835 33.6105 0
440 1 28.9469 33.6054 0
441 1 25.2939 34.8793 0
442 1 26.7569 34.8762 0
443 1 27.4914 36.1387 0
444 1 28.9544 36.1345 0
445 1 25.301 37.4078 0
446 1 26.7637 37.4051 0
447 1 27.4977 38.6689 0
448 1 28.9604 38.6653 0
449 1 29.6942 -0.548727 0
450 1 31.1567 -0.553037 0
451 1 31.8905 0.710936 0
452 1 33.3529 0.705923 0
453 1 29.6997 1.9848 0
454 1 31.162 1.98056 0
455 1 31.8963 3.24503 0
456 1 33.3587 3.23942 0
457 1 29.7055 4.52009 0
458 1 31.1679 4.51569 0
459 1 31.9029 5.78069 0
460 1 33.3656 5.77375 0
461 1 29.7119 7.05777 0
462 1 31.1748 7.05305 0
463 1 31.9112 8.31896 0
464 1 33.3745 8.30955 0
465 1 29.7192 9.59912 0
466 1 31.1832 9.59449 0
467 1 31.9226 10.8627 0
468 1 33.3872 10.8485 0
469 1 29.7265 12.1463 0
470 1 31.1947 12.1441 0
471 1 31.9404 13.4189 0
472 1 33.4091 13.3951 0
473 1 29.7248 14.6991 0
474 1 31.209 14.7099 0
475 1 31.961 16.0107 0
476 1 33.4629 15.967 0
477 1 29.6757 17.2405 0
478 1 31.1735 17.2897 0
479 1 31.7902 18.6606 0
480 1 34.2999 18.7055 0
481 1 29.5536 19.7726 0
482 1 30.9444 19.8282 0
483 1 31.6514 21.0514 0
484 1 33.0856 20.9017 0
485 1 29.5635 22.2905 0
486 1 31.0055 22.284 0
487 1 31.7775 23.4986 0
488 1 33.2613 23.4422 0
489 1 29.6103 24.7837 0
490 1 31.0791 24.7659 0
491 1 31.8284 26.0072 0
492 1 33.2985 25.9808 0
493 1 29.6424 27.2924 0
494 1 31.1102 27.2783 0
495 1 31.8508 28.5315 0
496 1 33.3165 28.5168 0
497 1 29.6612 29.8124 0
498 1 31.1266 29.8023 0
499 1 31.8637 31.0608 0
500 1 33.3276 31.0512 0
501 1 29.6733 32.3381 0
502 1 31.1373 32.3307 0
503 1 31.8727 33.5917 0
504 1 33.3357 33.5848 0
505 1 29.682 34.8669 0
506 1 31.1451 34.8611 0
507 1 31.8795 36.1235 0
508 1 33.3422 36.1179 0
509 1 29.6886 37.3973 0
510 1 31.1513 37.3925 0
511 1 31.8852 38.6558 0
512 1 33.3477 38.6508 0
513 1 34.0815 39.9144 0
514 1 35.5439 39.9094 0
515 1 36.2778 0.694745 0
516 1 37.7406 0.689956 0
517 1 34.087 1.96936 0
518 1 35.5496 1.96375 0
519 1 36.284 3.22616 0
520 1 37.7472 3.2204 0
521 1 34.0934 4.50251 0
522 1 35.5564 4.49554 0
523 1 36.2919 5.75658 0
524 1 37.7558 5.74912 0
525 1 34.1015 7.03609 0
526 1 35.5654 7.02645 0
527 1 36.3025 8.285 0
528 1 37.7679 8.27483 0
529 1 34.1126 9.57047 0
530 1 35.5783 9.55575 0
531 1 36.319 10.809 0
532 1 37.7868 10.7948 0
533 1 34.1306 12.1065 0
534 1 35.6007 12.0801 0
535 1 36.3501 13.3214 0
536 1 37.8188 13.3036 0
537 1 34.1679 14.645 0
538 1 35.6516 14.5887 0
539 1 36.4237 15.8033 0
540 1 37.8656 15.7968 0
541 1 34.3435 17.1856 0
542 1 35.7777 17.0359 0
543 1 36.4847 18.259 0
544 1 37.8756 18.3147 0
545 1 33.1293 19.3818 0
546 1 35.639 19.4266 0
547 1 36.2557 20.7975 0
548 1 37.7535 20.8468 0
549 1 33.9662 22.1202 0
550 1 35.4681 22.0766 0
551 1 36.2202 23.3774 0
552 1 37.7043 23.3882 0
553 1 34.02 24.6921 0
554 1 35.4888 24.6683 0
555 1 36.2345 25.9431 0
556 1 37.7026 25.9409 0
557 1 34.042 27.2387 0
558 1 35.5066 27.2245 0
559 1 36.2459 28.4928 0
560 1 37.7099 28.4881 0
561 1 34.0546 29.7777 0
562 1 35.5179 29.7683 0
563 1 36.2544 31.0342 0
564 1 37.7172 31.0295 0
565 1 34.0635 32.3135 0
566 1 35.5262 32.3066 0
567 1 36.2613 33.5716 0
568 1 37.7236 33.5672 0
569 1 34.0704 34.8478 0
570 1 35.5328 34.8422 0
571 1 36.2671 36.1067 0
572 1 37.7294 36.1025 0
573 1 34.0762 37.3813 0
574 1 35.5386 37.3763 0
575 1 36.2724 38.6403 0
576 1 37.7349 38.636 0
577 1 38.4688 39.8999 0
578 1 39.9315 39.8963 0
579 1 40.6655 0.682123 0
580 1 42.1282 0.679441 0
581 1 38.4747 1.95274 0
582 1 39.9378 1.94855 0
583 1 40.6723 3.21106 0
584 1 42.1352 3.208 0
585 1 38.4822 4.48182 0
586 1 39.9456 4.47676 0
587 1 40.6812 5.73802 0
588 1 42.144 5.73465 0
589 1 38.4922 7.00856 0
590 1 39.9562 7.00248 0
591 1 40.6933 8.26233 0
592 1 42.1555 8.25922 0
593 1 38.5067 9.53118 0
594 1 39.9709 9.52453 0
595 1 40.71 10.7834 0
596 1 42.1697 10.7819 0
597 1 38.5301 12.0466 0
598 1 39.9917 12.0415 0
599 1 40.7319 13.3024 0
600 1 42.1849 13.3044 0
601 1 38.5682 14.5542 0
602 1 40.0167 14.5561 0
603 1 40.7501 15.825 0
604 1 42.1939 15.8315 0
605 1 38.6008 17.0689 0
606 1 40.0287 17.0806 0
607 1 40.7383 18.354 0
608 1 42.1828 18.3654 0
609 1 38.5427 19.5897 0
610 1 39.9898 19.6173 0
611 1 40.6915 20.886 0
612 1 42.1517 20.8983 0
613 1 38.4579 22.1279 0
614 1 39.935 22.1461 0
615 1 40.6542 23.4179 0
616 1 42.1241 23.4273 0
617 1 38.4371 24.6704 0
618 1 39.9112 24.6793 0
619 1 40.6416 25.9527 0
620 1 42.1107 25.9585 0
621 1 38.44 27.216 0
622 1 39.9074 27.2183 0
623 1 40.6413 28.4898 0
624 1 42.1074 28.4924 0
625 1 38.4462 29.7583 0
626 1 39.9105 29.7575 0
627 1 40.6449 31.0268 0
628 1 42.1091 31.0273 0
629 1 38.4524 32.297 0
630 1 39.9154 32.295 0
631 1 40.6496 33.5625 0
632 1 42.1128 33.5617 0
633 1 38.4581 34.8332 0
634 1 39.9206 34.8305 0
635 1 40.6546 36.0967 0
636 1 42.1173 36.0951 0
637 1 38.4634 37.3675 0
638 1 39.9259 37.3644 0
639 1 40.6597 38.6293 0
640 1 42.1225 38.6271 0
641 1 42.8562 39.8918 0
642 1 44.3188 39.8904 0
643 1 45.0524 0.677204 0
644 1 46.5146 0.676663 0
645 1 42.8623 1.9432 0
646 1 44.3247 1.94157 0
647 1 45.0588 3.20578 0
648 1 46.5205 3.20528 0
649 1 42.8699 4.47089 0
650 1 44.3321 4.46929 0
651 1 45.0666 5.73321 0
652 1 46.5275 5.73303 0
653 1 42.8797 6.997 0
654 1 44.341 6.99576 0
655 1 45.0758 8.25994 0
656 1 46.5353 8.26045 0
657 1 42.892 9.52164 0
658 1 44.3513 9.52146 0
659 1 45.0857 10.7867 0
660 1 46.5429 10.7883 0
661 1 42.906 12.0459 0
662 1 44.3617 12.0476 0
663 1 45.094 13.3147 0
664 1 46.5484 13.3176 0
665 1 42.9176 14.5721 0
666 1 44.3684 14.5761 0
667 1 45.096 15.845 0
668 1 46.5489 15.8489 0
669 1 42.9168 17.1021 0
670 1 44.3658 17.1082 0
671 1 45.0876 18.3768 0
672 1 46.5421 18.3814 0
673 1 42.8964 19.6342 0
674 1 44.351 19.6414 0
675 1 45.0709 20.9084 0
676 1 46.5298 20.9132 0
677 1 42.8681 22.1653 0
678 1 44.3309 22.1723 0
679 1 45.0538 23.4388 0
680 1 46.5168 23.4432 0
681 1 42.8487 24.6959 0
682 1 44.3153 24.7016 0
683 1 45.0424 25.9689 0
684 1 46.5074 25.9727 0
685 1 42.8408 27.228 0
686 1 44.3072 27.232 0
687 1 45.0375 28.4998 0
688 1 46.5025 28.5026 0
689 1 42.84 29.7615 0
690 1 44.3051 29.7637 0
691 1 45.0371 31.0314 0
692 1 46.5014 31.0332 0
693 1 42.8425 32.2953 0
694 1 44.3064 32.2961 0
695 1 45.0393 33.5632 0
696 1 46.5028 33.564 0
697 1 42.8464 34.8286 0
698 1 44.3096 34.8284 0
699 1 45.0428 36.0947 0
700 1 46.5058 36.0948 0
701 1 42.851 37.3608 0
702 1 44.3138 37.3599 0
703 1 45.0471 38.6254 0
704 1 46.5097 38.625 0
705 1 47.2428 39.8905 0
706 1 48.7051 39.8907 0
707 1 49.4379 0.678349 0
708 1 50.8996 0.679062 0
709 1 47.2481 1.94172 0
710 1 48.7097 1.94193 0
711 1 49.4428 3.20746 0
712 1 50.9038 3.20825 0
713 1 47.2542 4.4702 0
714 1 48.7151 4.47065 0
715 1 49.4482 5.73631 0
716 1 50.9083 5.73738 0
717 1 47.2613 6.99819 0
718 1 48.7211 6.99909 0
719 1 49.4538 8.26519 0
720 1 50.9128 8.26669 0
721 1 47.2687 9.52629 0
722 1 48.7269 9.52781 0
723 1 49.4588 10.7946 0
724 1 50.9166 10.7965 0
725 1 47.275 12.0552 0
726 1 48.7315 12.0575 0
727 1 49.4618 13.3249 0
728 1 50.9185 13.3271 0
729 1 47.2779 14.5855 0
730 1 48.7331 14.5884 0
731 1 49.4612 15.856 0
732 1 50.9178 15.8585 0
733 1 47.2748 17.117 0
734 1 48.7303 17.1203 0
735 1 49.4565 18.3874 0
736 1 50.9141 18.39 0
737 1 47.2657 19.6486 0
738 1 48.7233 19.6521 0
739 1 49.4488 20.9185 0
740 1 50.9082 20.9211 0
741 1 47.2535 22.1794 0
742 1 48.7142 22.1829 0
743 1 49.4403 23.4487 0
744 1 50.9017 23.4512 0
745 1 47.2428 24.7094 0
746 1 48.7058 24.7126 0
747 1 49.4335 25.9784 0
748 1 50.8962 25.9807 0
749 1 47.2359 27.2392 0
750 1 48.6999 27.2419 0
751 1 49.4294 28.5079 0
752 1 50.8927 28.5099 0
753 1 47.2331 29.7693 0
754 1 48.6971 29.7714 0
755 1 49.428 31.0376 0
756 1 50.8912 31.0392 0
757 1 47.2333 32.2998 0
758 1 48.6969 32.3013 0
759 1 49.4286 33.5674 0
760 1 50.8916 33.5687 0
761 1 47.2353 34.8304 0
762 1 48.6984 34.8312 0
763 1 49.4306 36.0972 0
764 1 50.8933 36.0982 0
765 1 47.2386 37.3606 0
766 1 48.7012 37.3611 0
767 1 49.4338 38.6269 0
768 1 50.896 38.6277 0
769 1 51.6284 39.8935 0
770 1 53.0901 39.8946 0
771 1 53.8222 0.682651 0
772 1 55.2835 0.683954 0
773 1 51.6321 1.94491 0
774 1 53.0933 1.946 0
775 1 53.8254 3.2121 0
776 1 55.2862 3.21345 0
777 1 51.6363 4.47423 0
778 1 53.0969 4.47541 0
779 1 53.8288 5.7417 0
780 1 55.289 5.74314 0
781 1 51.6406 7.00362 0
782 1 53.1003 7.00502 0
783 1 53.8319 8.27156 0
784 1 55.2914 8.27312 0
785 1 51.6445 9.53329 0
786 1 53.1033 9.53498 0
787 1 53.8342 10.8017 0
788 1 55.2931 10.8035 0
789 1 51.6472 12.0635 0
790 1 53.1052 12.0654 0
791 1 53.8352 13.3323 0
792 1 55.2937 13.3341 0
793 1 51.6479 14.5943 0
794 1 53.1054 14.5964 0
795 1 53.8344 15.8632 0
796 1 55.2929 15.865 0
797 1 51.6457 17.1255 0
798 1 53.1036 17.1276 0
799 1 53.8318 18.3941 0
800 1 55.2908 18.3959 0
801 1 51.6411 19.6565 0
802 1 53.1 19.6586 0
803 1 53.8279 20.9246 0
804 1 55.2877 20.9264 0
805 1 51.6351 22.1869 0
806 1 53.0954 22.189 0
807 1 53.8235 23.4547 0
808 1 55.2843 23.4565 0
809 1 51.6294 24.7168 0
810 1 53.091 24.7188 0
811 1 53.8197 25.9844 0
812 1 55.2813 25.9862 0
813 1 51.6251 27.2463 0
814 1 53.0875 27.2482 0
815 1 53.8171 28.5139 0
816 1 55.2792 28.5156 0
817 1 51.6228 29.7757 0
818 1 53.0854 29.7774 0
819 1 53.8158 31.0432 0
820 1 55.2781 31.0448 0
821 1 51.6222 32.3052 0
822 1 53.0849 32.3067 0
823 1 53.8159 33.5725 0
824 1 55.2782 33.574 0
825 1 51.6231 34.8346 0
826 1 53.0856 34.836 0
827 1 53.8172 36.1018 0
828 1 55.2792 36.1032 0
829 1 51.6253 37.3641 0
830 1 53.0875 37.3653 0
831 1 53.8193 38.6312 0
832 1 55.2811 38.6325 0
833 1 56.0127 39.8985 0
834 1 57.4741 39.9 0
835 1 58.2055 0.688152 0
836 1 59.6666 0.689663 0
837 1 56.0152 1.95009 0
838 1 57.4762 1.95153 0
839 1 58.2076 3.21776 0
840 1 59.6683 3.21929 0
841 1 56.0179 4.47971 0
842 1 57.4784 4.48121 0
843 1 58.2096 5.74756 0
844 1 59.67 5.74912 0
845 1 56.0204 7.00957 0
846 1 57.4804 7.01113 0
847 1 58.2113 8.27759 0
848 1 59.6713 8.27918 0
849 1 56.0224 9.53972 0
850 1 57.4819 9.54134 0
851 1 58.2124 10.8079 0
852 1 59.6721 10.8095 0
853 1 56.0234 12.0701 0
854 1 57.4827 12.0718 0
855 1 58.2127 13.3383 0
856 1 59.6722 13.3399 0
857 1 56.0233 14.6008 0
858 1 57.4825 14.6025 0
859 1 58.212 15.8689 0
860 1 59.6716 15.8705 0
861 1 56.0219 17.1315 0
862 1 57.4813 17.1332 0
863 1 58.2104 18.3994 0
864 1 59.6702 18.401 0
865 1 56.0194 19.662 0
866 1 57.4792 19.6637 0
867 1 58.2082 20.9297 0
868 1 59.6685 20.9313 0
869 1 56.0163 22.1923 0
870 1 57.4768 22.194 0
871 1 58.2058 23.4598 0
872 1 59.6665 23.4614 0
873 1 56.0132 24.7222 0
874 1 57.4743 24.7239 0
875 1 58.2037 25.9896 0
876 1 59.6648 25.9912 0
877 1 56.0107 27.2518 0
878 1 57.4723 27.2535 0
879 1 58.2021 28.5192 0
880 1 59.6635 28.5207 0
881 1 56.0092 29.7812 0
882 1 57.471 29.7828 0
883 1 58.2013 31.0486 0
884 1 59.6629 31.0501 0
885 1 56.0087 32.3106 0
886 1 57.4706 32.3121 0
887 1 58.2014 33.5779 0
888 1 59.663 33.5794 0
889 1 56.0093 34.8398 0
890 1 57.4711 34.8413 0
891 1 58.2022 36.1072 0
892 1 59.6637 36.1087 0
893 1 56.0107 37.3692 0
894 1 57.4723 37.3706 0
895 1 58.2037 38.6366 0
896 1 59.665 38.6381 0
897 1 60.3962 39.9042 0
898 1 61.8573 39.9057 0
899 1 62.5884 0.693914 0
900 1 64.0493 0.695473 0
901 1 60.3978 1.95583 0
902 1 61.8587 1.95738 0
903 1 62.5897 3.22357 0
904 1 64.0504 3.22513 0
905 1 60.3995 4.48556 0
906 1 61.86 4.48712 0
907 1 62.5909 5.75337 0
908 1 64.0514 5.75493 0
909 1 60.4009 7.01547 0
910 1 61.8612 7.01704 0
911 1 62.5918 8.28334 0
912 1 64.0521 8.28489 0
913 1 60.4019 9.54559 0
914 1 61.8619 9.54716 0
915 1 62.5923 10.8135 0
916 1 64.0524 10.815 0
917 1 60.4023 12.0759 0
918 1 61.8622 12.0775 0
919 1 62.5922 13.3437 0
920 1 64.0523 13.3453 0
921 1 60.4021 14.6063 0
922 1 61.8619 14.6079 0
923 1 62.5916 15.8741 0
924 1 64.0517 15.8756 0
925 1 60.4011 17.1367 0
926 1 61.861 17.1383 0
927 1 62.5906 18.4044 0
928 1 64.0507 18.4059 0
929 1 60.3996 19.6671 0
930 1 61.8597 19.6686 0
931 1 62.5892 20.9346 0
932 1 64.0495 20.9361 0
933 1 60.3978 22.1972 0
934 1 61.8582 22.1988 0
935 1 62.5878 23.4646 0
936 1 64.0483 23.4661 0
937 1 60.396 24.7272 0
938 1 61.8568 24.7287 0
939 1 62.5865 25.9945 0
940 1 64.0473 25.996 0
941 1 60.3946 27.2569 0
942 1 61.8556 27.2584 0
943 1 62.5857 28.5243 0
944 1 64.0466 28.5258 0
945 1 60.3937 29.7865 0
946 1 61.8549 29.788 0
947 1 62.5853 31.0538 0
948 1 64.0464 31.0554 0
949 1 60.3934 32.3159 0
950 1 61.8548 32.3175 0
951 1 62.5854 33.5833 0
952 1 64.0466 33.5849 0
953 1 60.3938 34.8453 0
954 1 61.8552 34.8469 0
955 1 62.5861 36.1128 0
956 1 64.0472 36.1144 0
957 1 60.3948 37.3747 0
958 1 61.8561 37.3763 0
959 1 62.5871 38.6423 0
960 1 64.0482 38.6438 0
961 1 64.7791 39.9099 0
962 1 66.2401 39.9115 0
963 1 66.971 0.699646 0
964 1 68.4319 0.701206 0
965 1 64.7802 1.9616 0
966 1 66.2411 1.96317 0
967 1 66.9719 3.22927 0
968 1 68.4328 3.23083 0
969 1 64.7813 4.49131 0
970 1 66.242 4.49286 0
971 1 66.9727 5.75899 0
972 1 68.4334 5.76053 0
973 1 64.7821 7.02114 0
974 1 66.2426 7.02268 0
975 1 66.9731 8.28882 0
976 1 68.4337 8.29034 0
977 1 64.7826 9.55111 0
978 1 66.2429 9.55264 0
979 1 66.9732 10.8188 0
980 1 68.4336 10.8203 0
981 1 64.7826 12.0812 0
982 1 66.2428 12.0827 0
983 1 66.9729 13.3488 0
984 1 68.4332 13.3503 0
985 1 64.7822 14.6114 0
986 1 66.2424 14.6129 0
987 1 66.9722 15.879 0
988 1 68.4325 15.8804 0
989 1 64.7814 17.1417 0
990 1 66.2416 17.1431 0
991 1 66.9713 18.4092 0
992 1 68.4316 18.4106 0
993 1 64.7803 19.6719 0
994 1 66.2406 19.6733 0
995 1 66.9703 20.9393 0
996 1 68.4306 20.9408 0
997 1 64.7792 22.202 0
998 1 66.2396 22.2035 0
999 1 66.9694 23.4695 0
1000 1 68.4297 23.4709 0
1001 1 64.7781 24.732 0
1002 1 66.2387 24.7335 0
1003 1 66.9686 25.9995 0
1004 1 68.4291 26.001 0
1005 1 64.7773 27.2619 0
1006 1 66.238 27.2634 0
1007 1 66.9682 28.5294 0
1008 1 68.4288 28.5309 0
1009 1 64.7769 29.7917 0
1010 1 66.2377 29.7932 0
1011 1 66.9681 31.0591 0
1012 1 68.4289 31.0607 0
1013 1 64.7769 32.3213 0
1014 1 66.2379 32.3228 0
1015 1 66.9685 33.5888 0
1016 1 68.4294 33.5904 0
1017 1 64.7773 34.8508 0
1018 1 66.2384 34.8524 0
1019 1 66.9691 36.1184 0
1020 1 68.4301 36.12 0
1021 1 64.7781 37.3804 0
1022 1 66.2391 37.3819 0
1023 1 66.97 38.648 0
1024 1 68.431 38.6496 0
