ITEM: TIMESTEP
263
ITEM: NUMBER OF ATOMS
861
ITEM: BOX BOUNDS pp pp ff
2.8413883464210443e-01 7.6395861165357900e+01
2.1516463770004060e-02 2.9492629536229998e+01
-2.0000000000000000e+01 2.0000000000000000e+01
ITEM: ATOMS id type x y z
1 1 0.943387 1.3694 0
2 1 0.851534 3.72153 0
3 1 0.483823 5.77804 0
4 1 3.44465 0.126912 0
5 1 3.89313 1.50522 0
6 1 5.35441 1.75173 0
7 1 1.59615 2.55294 0
8 1 3.04672 2.66253 0
9 1 3.71197 3.94857 0
10 1 5.07965 4.16943 0
11 1 1.65296 4.885 0
12 1 2.94987 5.10332 0
13 1 3.42552 6.41859 0
14 1 4.80252 6.61543 0
15 1 1.25157 7.40997 0
16 1 2.59328 7.54998 0
17 1 3.18525 8.83012 0
18 1 4.5369 9.03978 0
19 1 1.03373 9.48355 0
20 1 2.32851 9.92363 0
21 1 2.77138 11.269 0
22 1 4.15377 11.4781 0
23 1 0.667299 12.2948 0
24 1 1.97167 12.4306 0
25 1 2.39125 13.7405 0
26 1 3.76989 13.9409 0
27 1 1.43676 14.7174 0
28 1 1.9417 16.2296 0
29 1 3.4022 16.3697 0
30 1 0.980893 17.5462 0
31 1 1.60222 18.7349 0
32 1 3.05145 18.7938 0
33 1 0.869432 19.896 0
34 1 1.64004 21.0709 0
35 1 2.95231 21.2133 0
36 1 0.507296 22.0339 0
37 1 1.30516 23.5812 0
38 1 2.63932 23.62 0
39 1 1.05782 25.626 0
40 1 2.35974 25.9465 0
41 1 0.643442 28.5415 0
42 1 2.04691 28.5933 0
43 1 6.33782 0.727126 0
44 1 7.71264 0.936475 0
45 1 8.15789 2.23976 0
46 1 9.53637 2.36858 0
47 1 5.90237 3.06042 0
48 1 7.28117 3.30011 0
49 1 7.83144 4.5824 0
50 1 9.21816 4.7606 0
51 1 5.61508 5.47833 0
52 1 6.99484 5.69175 0
53 1 7.53496 6.98449 0
54 1 8.9147 7.17548 0
55 1 5.34363 7.91011 0
56 1 6.71457 8.10948 0
57 1 7.21027 9.42079 0
58 1 8.59141 9.60645 0
59 1 5.00215 10.3575 0
60 1 6.37832 10.5507 0
61 1 6.8656 11.8621 0
62 1 8.25154 12.0367 0
63 1 4.62337 12.8054 0
64 1 6.01126 12.9834 0
65 1 6.5146 14.2894 0
66 1 7.90619 14.4527 0
67 1 4.2529 15.2566 0
68 1 5.65082 15.4053 0
69 1 6.18206 16.6984 0
70 1 7.57637 16.8571 0
71 1 3.91018 17.6575 0
72 1 5.31853 17.8104 0
73 1 5.8987 19.0834 0
74 1 7.28414 19.2548 0
75 1 3.70277 20.0529 0
76 1 5.08321 20.2075 0
77 1 5.62704 21.4959 0
78 1 7.00571 21.6659 0
79 1 3.45991 22.4947 0
80 1 4.83242 22.6378 0
81 1 5.36436 23.9153 0
82 1 6.7276 24.0919 0
83 1 3.2178 24.8727 0
84 1 4.56971 25.0398 0
85 1 5.04627 26.3349 0
86 1 6.4163 26.5387 0
87 1 2.76571 27.26 0
88 1 4.14891 27.3809 0
89 1 4.56409 28.6829 0
90 1 5.92651 28.8909 0
91 1 12.7141 0.303828 0
92 1 14.0953 0.500362 0
93 1 10.2724 1.09147 0
94 1 11.7225 1.3122 0
95 1 12.2578 2.65709 0
96 1 13.6651 2.87649 0
97 1 10.0687 3.64884 0
98 1 11.4482 3.80699 0
99 1 11.9738 5.11045 0
100 1 13.3586 5.30492 0
101 1 9.7497 6.05532 0
102 1 11.1343 6.23542 0
103 1 11.6518 7.54035 0
104 1 13.0382 7.72783 0
105 1 9.4263 8.48052 0
106 1 10.8111 8.66353 0
107 1 11.3259 9.96805 0
108 1 12.7136 10.1504 0
109 1 9.09585 10.913 0
110 1 10.4825 11.0904 0
111 1 11.0009 12.3916 0
112 1 12.3895 12.5695 0
113 1 8.76295 13.3385 0
114 1 10.1516 13.5092 0
115 1 10.6785 14.8056 0
116 1 12.0672 14.9819 0
117 1 8.43432 15.7475 0
118 1 9.8243 15.9169 0
119 1 10.3627 17.2078 0
120 1 11.7496 17.3872 0
121 1 8.12675 18.1421 0
122 1 9.51286 18.3178 0
123 1 10.0508 19.6075 0
124 1 11.4347 19.7888 0
125 1 7.82815 20.542 0
126 1 9.20923 20.7203 0
127 1 9.73466 22.0132 0
128 1 11.1148 22.1894 0
129 1 7.53148 22.9578 0
130 1 8.90407 23.133 0
131 1 9.40311 24.4332 0
132 1 10.7809 24.5892 0
133 1 7.2147 25.3958 0
134 1 8.57819 25.5676 0
135 1 9.06341 26.8701 0
136 1 10.4232 26.9684 0
137 1 6.8942 27.8667 0
138 1 8.31386 28.0684 0
139 1 8.81365 29.4312 0
140 1 16.8153 0.894653 0
141 1 18.1782 1.16298 0
142 1 14.5708 1.80625 0
143 1 15.952 2.00051 0
144 1 16.4818 3.29916 0
145 1 17.8735 3.50787 0
146 1 14.2025 4.18477 0
147 1 15.5973 4.39098 0
148 1 16.1286 5.69294 0
149 1 17.5195 5.89139 0
150 1 13.8837 6.60822 0
151 1 15.2717 6.80337 0
152 1 15.8001 8.10396 0
153 1 17.1898 8.29494 0
154 1 13.5598 9.03089 0
155 1 14.9484 9.21884 0
156 1 15.4766 10.519 0
157 1 16.8664 10.7059 0
158 1 13.2374 11.4515 0
159 1 14.6264 11.6352 0
160 1 15.157 12.9338 0
161 1 16.5468 13.1189 0
162 1 12.9178 13.8674 0
163 1 14.3068 14.0493 0
164 1 14.84 15.346 0
165 1 16.2292 15.5312 0
166 1 12.6011 16.2763 0
167 1 13.989 16.4593 0
168 1 14.5228 17.7545 0
169 1 15.9107 17.941 0
170 1 12.2846 18.6797 0
171 1 13.6706 18.8649 0
172 1 14.2003 20.16 0
173 1 15.5865 20.3479 0
174 1 11.9632 21.0817 0
175 1 13.3467 21.2674 0
176 1 13.8673 22.564 0
177 1 15.2516 22.7531 0
178 1 11.6291 23.4837 0
179 1 13.0097 23.6674 0
180 1 13.5178 24.9653 0
181 1 14.8984 25.1556 0
182 1 11.284 25.8781 0
183 1 12.6593 26.0664 0
184 1 13.1569 27.3644 0
185 1 14.526 27.5594 0
186 1 10.9587 28.2308 0
187 1 12.3101 28.4679 0
188 1 21.0626 1.51723 0
189 1 22.4637 1.60223 0
190 1 18.7611 2.42304 0
191 1 20.1345 2.57196 0
192 1 20.6625 3.86849 0
193 1 22.0603 4.02231 0
194 1 18.3966 4.8 0
195 1 19.7886 4.96835 0
196 1 20.3124 6.26542 0
197 1 21.7034 6.43791 0
198 1 18.0508 7.1881 0
199 1 19.443 7.36807 0
200 1 19.9711 8.66712 0
201 1 21.362 8.84834 0
202 1 17.721 9.59317 0
203 1 19.1119 9.77703 0
204 1 19.6434 11.0757 0
205 1 21.0342 11.2601 0
206 1 17.3987 12.0042 0
207 1 18.7893 12.1892 0
208 1 19.3231 13.4874 0
209 1 20.7138 13.6728 0
210 1 17.0806 14.4166 0
211 1 18.4708 14.6021 0
212 1 19.0053 15.8999 0
213 1 20.3959 16.0853 0
214 1 16.7631 16.8282 0
215 1 18.1527 17.0142 0
216 1 18.6852 18.3123 0
217 1 20.0757 18.4965 0
218 1 16.4415 19.2382 0
219 1 17.8302 19.4245 0
220 1 18.3577 20.724 0
221 1 19.7483 20.9048 0
222 1 16.1101 21.6465 0
223 1 17.4974 21.833 0
224 1 18.0165 23.1349 0
225 1 19.4071 23.307 0
226 1 15.7646 24.0546 0
227 1 17.1509 24.2433 0
228 1 17.6603 25.5515 0
229 1 19.0575 25.7049 0
230 1 15.3919 26.4607 0
231 1 16.771 26.6533 0
232 1 17.2579 27.9725 0
233 1 18.6586 28.0571 0
234 1 14.9861 28.8722 0
235 1 16.3683 29.058 0
236 1 23.3543 0.517045 0
237 1 24.7379 0.704492 0
238 1 25.2009 2.01833 0
239 1 26.572 2.21721 0
240 1 22.9517 2.92173 0
241 1 24.3321 3.11568 0
242 1 24.8278 4.42141 0
243 1 26.21 4.6152 0
244 1 22.5708 5.33063 0
245 1 23.958 5.52021 0
246 1 24.4737 6.8217 0
247 1 25.8596 7.0123 0
248 1 22.2236 7.7399 0
249 1 23.6119 7.92682 0
250 1 24.137 9.22568 0
251 1 25.5247 9.41456 0
252 1 21.8901 10.148 0
253 1 23.2797 10.3349 0
254 1 23.8109 11.633 0
255 1 25.1998 11.8217 0
256 1 21.567 12.5587 0
257 1 22.9572 12.7457 0
258 1 23.492 14.0433 0
259 1 24.8818 14.2317 0
260 1 21.2487 14.9708 0
261 1 22.6393 15.1574 0
262 1 23.175 16.455 0
263 1 24.5654 16.6427 0
264 1 20.9303 17.3833 0
265 1 22.3212 17.5687 0
266 1 22.8553 18.8666 0
267 1 24.246 19.0542 0
268 1 20.6075 19.795 0
269 1 21.9988 19.9782 0
270 1 22.531 21.2762 0
271 1 23.9217 21.4657 0
272 1 20.2762 22.2039 0
273 1 21.6688 22.3827 0
274 1 22.2001 23.6797 0
275 1 23.592 23.8761 0
276 1 19.9306 24.6042 0
277 1 21.3229 24.7718 0
278 1 21.846 26.0643 0
279 1 23.2384 26.2725 0
280 1 19.5854 27.0014 0
281 1 20.9589 27.15 0
282 1 21.5424 28.4103 0
283 1 22.9058 28.6796 0
284 1 30.8977 0.185261 0
285 1 27.4228 1.11444 0
286 1 28.7759 1.36706 0
287 1 29.3154 2.63415 0
288 1 30.6774 2.74389 0
289 1 27.074 3.5175 0
290 1 28.4509 3.71928 0
291 1 28.9681 5.00598 0
292 1 30.3512 5.16815 0
293 1 26.724 5.91293 0
294 1 28.107 6.10194 0
295 1 28.6285 7.39483 0
296 1 30.0128 7.57493 0
297 1 26.3832 8.30895 0
298 1 27.769 8.4968 0
299 1 28.2945 9.79221 0
300 1 29.6794 9.97986 0
301 1 26.0538 10.7113 0
302 1 27.4408 10.9004 0
303 1 27.973 12.1958 0
304 1 29.3595 12.3853 0
305 1 25.7338 13.1185 0
306 1 27.1222 13.308 0
307 1 27.6592 14.6036 0
308 1 29.048 14.7927 0
309 1 25.4181 15.5287 0
310 1 26.8079 15.7176 0
311 1 27.3434 17.0151 0
312 1 28.7331 17.2044 0
313 1 25.1004 17.9407 0
314 1 26.4906 18.1291 0
315 1 27.0233 19.4281 0
316 1 28.4137 19.6159 0
317 1 24.778 20.3532 0
318 1 26.1683 20.5417 0
319 1 26.6945 21.843 0
320 1 28.0837 22.0301 0
321 1 24.4514 22.7659 0
322 1 25.8411 22.9587 0
323 1 26.3648 24.2622 0
324 1 27.7514 24.4537 0
325 1 24.1225 25.1789 0
326 1 25.5183 25.3831 0
327 1 26.0528 26.6933 0
328 1 27.4589 26.9113 0
329 1 23.7686 27.5725 0
330 1 25.1508 27.7679 0
331 1 25.6289 29.0758 0
332 1 27.0122 29.2756 0
333 1 33.74 0.710887 0
334 1 35.0834 0.922245 0
335 1 31.4218 1.54993 0
336 1 32.8353 1.77143 0
337 1 33.3704 3.09064 0
338 1 34.7536 3.31216 0
339 1 31.1903 4.04507 0
340 1 32.5644 4.23174 0
341 1 33.085 5.53828 0
342 1 34.4708 5.73333 0
343 1 30.8661 6.46659 0
344 1 32.2471 6.65693 0
345 1 32.7621 7.95786 0
346 1 34.1393 8.16703 0
347 1 30.5322 8.87244 0
348 1 31.9141 9.06627 0
349 1 32.446 10.3601 0
350 1 33.8246 10.5652 0
351 1 30.2098 11.2747 0
352 1 31.5943 11.4662 0
353 1 32.1386 12.7555 0
354 1 33.5275 12.9421 0
355 1 29.8977 13.6788 0
356 1 31.2856 13.8665 0
357 1 31.8182 15.1627 0
358 1 33.205 15.348 0
359 1 29.5832 16.0896 0
360 1 30.9719 16.279 0
361 1 31.5102 17.5757 0
362 1 32.902 17.7628 0
363 1 29.2684 18.5024 0
364 1 30.6593 18.692 0
365 1 31.1885 19.9937 0
366 1 32.5795 20.1914 0
367 1 28.9408 20.9171 0
368 1 30.3311 21.1049 0
369 1 30.8538 22.4073 0
370 1 32.2415 22.6083 0
371 1 28.603 23.334 0
372 1 29.9917 23.5131 0
373 1 30.5129 24.8121 0
374 1 31.9005 24.9957 0
375 1 28.2697 25.7592 0
376 1 29.6494 25.9165 0
377 1 30.1695 27.2009 0
378 1 31.5443 27.3406 0
379 1 27.992 28.2572 0
380 1 29.434 28.4717 0
381 1 37.3511 0.75964 0
382 1 35.5971 2.21931 0
383 1 36.9873 2.14828 0
384 1 37.6369 3.39735 0
385 1 35.255 4.59657 0
386 1 36.6826 4.76668 0
387 1 37.2977 6.32271 0
388 1 34.9837 7.05061 0
389 1 36.3205 7.33401 0
390 1 36.8346 8.60303 0
391 1 34.678 9.47309 0
392 1 36.056 9.72917 0
393 1 36.6754 10.9561 0
394 1 38.1793 10.9679 0
395 1 34.3936 11.84 0
396 1 35.7941 12.0179 0
397 1 36.2773 13.3041 0
398 1 37.6395 13.554 0
399 1 34.052 14.2368 0
400 1 35.4337 14.4089 0
401 1 36.0104 15.6819 0
402 1 37.4279 15.8305 0
403 1 33.7477 16.6396 0
404 1 35.1412 16.809 0
405 1 35.6512 18.1212 0
406 1 37.0153 18.2377 0
407 1 33.426 19.0679 0
408 1 34.8178 19.267 0
409 1 35.2887 20.5822 0
410 1 36.7114 20.7961 0
411 1 33.0989 21.5028 0
412 1 34.4885 21.7166 0
413 1 35.0094 23.0457 0
414 1 36.3454 23.366 0
415 1 32.7685 23.9074 0
416 1 34.1463 24.1531 0
417 1 34.6848 25.4732 0
418 1 36.0617 25.7752 0
419 1 32.4327 26.2841 0
420 1 33.8055 26.5411 0
421 1 34.3214 27.8463 0
422 1 35.7529 28.0901 0
423 1 31.978 28.648 0
424 1 33.3424 28.8717 0
425 1 37.8454 17.1396 0
426 1 37.6638 19.4772 0
427 1 37.3282 22.3569 0
428 1 36.8505 24.6471 0
429 1 36.6669 27.0304 0
430 1 38.2039 27.0555 0
431 1 36.1408 29.422 0
432 1 38.5346 21.0507 0
433 1 38.8971 23.1316 0
434 1 39.0234 25.5104 0
435 1 39.4704 28.3188 0
436 1 40.1135 1.15161 0
437 1 39.2751 3.53321 0
438 1 40.5783 3.44844 0
439 1 38.4899 5.02021 0
440 1 39.6383 5.96856 0
441 1 40.9452 5.81917 0
442 1 38.8666 7.13887 0
443 1 39.6014 8.29464 0
444 1 41.0484 8.22472 0
445 1 38.9916 9.48551 0
446 1 39.9393 10.7985 0
447 1 41.3858 10.6457 0
448 1 39.3534 12.2944 0
449 1 40.2396 13.3232 0
450 1 41.6511 13.0834 0
451 1 38.33 14.7607 0
452 1 39.7352 14.6418 0
453 1 40.6692 15.6738 0
454 1 42.0632 15.4745 0
455 1 40.2822 17.009 0
456 1 41.1297 18.1123 0
457 1 42.4945 17.8977 0
458 1 39.3222 19.521 0
459 1 40.6324 19.3853 0
460 1 41.4773 20.4911 0
461 1 42.8455 20.3097 0
462 1 39.698 21.9738 0
463 1 40.9974 21.7868 0
464 1 41.7535 22.9366 0
465 1 43.1279 22.7469 0
466 1 39.6249 24.3022 0
467 1 41.087 24.1983 0
468 1 41.9509 25.3282 0
469 1 43.364 25.1401 0
470 1 39.9901 26.8056 0
471 1 41.4463 26.6194 0
472 1 42.3085 27.7119 0
473 1 43.7048 27.5345 0
474 1 40.4267 29.2738 0
475 1 41.8332 29.0334 0
476 1 42.788 0.639044 0
477 1 44.1681 0.459598 0
478 1 41.0437 2.18257 0
479 1 42.3872 1.96113 0
480 1 43.2566 3.05412 0
481 1 44.6231 2.86179 0
482 1 41.4304 4.53683 0
483 1 42.7914 4.35934 0
484 1 43.604 5.49234 0
485 1 44.9817 5.30315 0
486 1 41.7026 6.96902 0
487 1 43.0798 6.79359 0
488 1 43.8971 7.91697 0
489 1 45.2819 7.72726 0
490 1 41.9007 9.36065 0
491 1 43.3084 9.19097 0
492 1 44.1615 10.3104 0
493 1 45.562 10.1305 0
494 1 42.1979 11.7737 0
495 1 43.6074 11.6047 0
496 1 44.4891 12.7015 0
497 1 45.8869 12.5295 0
498 1 42.5622 14.1685 0
499 1 43.9601 13.9991 0
500 1 44.8452 15.0966 0
501 1 46.237 14.9283 0
502 1 42.9541 16.5783 0
503 1 44.3418 16.4001 0
504 1 45.2046 17.5144 0
505 1 46.5907 17.3399 0
506 1 43.3404 19.0086 0
507 1 44.7146 18.8231 0
508 1 45.5474 19.9492 0
509 1 46.9305 19.7662 0
510 1 43.6568 21.4451 0
511 1 45.0364 21.2534 0
512 1 45.8711 22.3716 0
513 1 47.2556 22.1871 0
514 1 43.9488 23.8638 0
515 1 45.3321 23.6625 0
516 1 46.1901 24.7586 0
517 1 47.5796 24.5914 0
518 1 44.2443 26.2397 0
519 1 45.6447 26.0391 0
520 1 46.5365 27.1185 0
521 1 47.9114 26.9838 0
522 1 44.5904 28.6245 0
523 1 45.9527 28.3712 0
524 1 45.0857 1.53553 0
525 1 46.487 1.45869 0
526 1 47.3896 2.53934 0
527 1 48.7582 2.40143 0
528 1 45.4782 3.98985 0
529 1 46.8671 3.83483 0
530 1 47.7214 4.95 0
531 1 49.1112 4.78223 0
532 1 45.8155 6.42894 0
533 1 47.2014 6.24933 0
534 1 48.0539 7.36104 0
535 1 49.4441 7.17587 0
536 1 46.1241 8.84341 0
537 1 47.5141 8.65614 0
538 1 48.37 9.76527 0
539 1 49.7611 9.57963 0
540 1 46.4281 11.2358 0
541 1 47.8233 11.0572 0
542 1 48.6878 12.1631 0
543 1 50.08 11.9843 0
544 1 46.7611 13.6305 0
545 1 48.1537 13.4587 0
546 1 49.0158 14.5676 0
547 1 50.4067 14.3919 0
548 1 47.1016 16.0378 0
549 1 48.4911 15.8661 0
550 1 49.3448 16.9818 0
551 1 50.7344 16.8042 0
552 1 47.4385 18.461 0
553 1 48.8261 18.2833 0
554 1 49.6755 19.4012 0
555 1 51.0637 19.219 0
556 1 47.7733 20.8859 0
557 1 49.1594 20.7042 0
558 1 50.0109 21.8189 0
559 1 51.3975 21.6323 0
560 1 48.1078 23.2974 0
561 1 49.4949 23.1217 0
562 1 50.355 24.2321 0
563 1 51.7412 24.0419 0
564 1 48.4469 25.6921 0
565 1 49.8424 25.5389 0
566 1 50.7298 26.6404 0
567 1 52.1107 26.4462 0
568 1 48.8359 28.0424 0
569 1 50.2384 27.959 0
570 1 51.1364 29.0388 0
571 1 52.5197 28.8529 0
572 1 49.3325 1.14046 0
573 1 50.6938 0.87639 0
574 1 51.5535 1.98469 0
575 1 52.9353 1.79073 0
576 1 49.6362 3.49088 0
577 1 51.0254 3.28411 0
578 1 51.9044 4.38008 0
579 1 53.2999 4.17564 0
580 1 49.9789 5.8801 0
581 1 51.3695 5.68119 0
582 1 52.2251 6.79301 0
583 1 53.6151 6.59866 0
584 1 50.3005 8.28454 0
585 1 51.6905 8.09186 0
586 1 52.5444 9.20523 0
587 1 53.9348 9.01732 0
588 1 50.6186 10.6892 0
589 1 52.0093 10.5031 0
590 1 52.864 11.6164 0
591 1 54.2549 11.4329 0
592 1 50.9386 13.0947 0
593 1 52.3298 12.9139 0
594 1 53.1845 14.0276 0
595 1 54.5757 13.8465 0
596 1 51.2619 15.5053 0
597 1 52.6526 15.3257 0
598 1 53.5071 16.4393 0
599 1 54.898 16.2587 0
600 1 51.5876 17.9189 0
601 1 52.9774 17.7377 0
602 1 53.8335 18.8493 0
603 1 55.2237 18.6687 0
604 1 51.918 20.3317 0
605 1 53.3066 20.1476 0
606 1 54.1668 21.2545 0
607 1 55.5558 21.0743 0
608 1 52.2565 22.7399 0
609 1 53.6436 22.5525 0
610 1 54.5107 23.6526 0
611 1 55.8974 23.4721 0
612 1 52.6106 25.1414 0
613 1 53.9952 24.9511 0
614 1 54.8667 26.0464 0
615 1 56.2496 25.8561 0
616 1 52.9842 27.54 0
617 1 54.357 27.3447 0
618 1 55.2096 28.448 0
619 1 56.5655 28.202 0
620 1 53.412 0.482372 0
621 1 54.7971 0.287075 0
622 1 55.7806 1.3072 0
623 1 57.2256 1.09646 0
624 1 53.8375 2.86664 0
625 1 55.2464 2.65166 0
626 1 56.0631 3.80196 0
627 1 57.4486 3.64981 0
628 1 54.1462 5.29666 0
629 1 55.5351 5.10638 0
630 1 56.3829 6.2302 0
631 1 57.7746 6.06012 0
632 1 54.4653 7.71668 0
633 1 55.8556 7.53248 0
634 1 56.7059 8.65147 0
635 1 58.0966 8.47592 0
636 1 54.7867 10.1337 0
637 1 56.1774 9.95179 0
638 1 57.0296 11.0682 0
639 1 58.4203 10.8903 0
640 1 55.1082 12.5481 0
641 1 56.4992 12.3673 0
642 1 57.3527 13.4823 0
643 1 58.7435 13.3032 0
644 1 55.4299 14.9607 0
645 1 56.8211 14.7807 0
646 1 57.6758 15.8944 0
647 1 59.0666 15.7156 0
648 1 55.7539 17.3711 0
649 1 57.1448 17.1924 0
650 1 58.0016 18.3041 0
651 1 59.3919 18.1268 0
652 1 56.0829 19.7775 0
653 1 57.4732 19.6019 0
654 1 58.333 20.711 0
655 1 59.7219 20.5362 0
656 1 56.4201 22.1775 0
657 1 57.8094 22.0089 0
658 1 58.6697 23.1182 0
659 1 60.0553 22.9455 0
660 1 56.7659 24.5678 0
661 1 58.1535 24.4174 0
662 1 59.0041 25.5398 0
663 1 60.3814 25.3635 0
664 1 57.1236 26.9424 0
665 1 58.4944 26.8424 0
666 1 59.2642 28.0302 0
667 1 60.6924 27.8211 0
668 1 58.7483 29.3884 0
669 1 59.8216 0.924115 0
670 1 61.1959 0.7103 0
671 1 57.9829 2.36605 0
672 1 59.366 2.23147 0
673 1 60.2391 3.30553 0
674 1 61.6239 3.08664 0
675 1 58.306 4.76293 0
676 1 59.6986 4.59581 0
677 1 60.5422 5.70981 0
678 1 61.9259 5.52087 0
679 1 58.6245 7.17746 0
680 1 60.014 7.00468 0
681 1 60.864 8.11875 0
682 1 62.2505 7.93833 0
683 1 58.9486 9.59175 0
684 1 60.3382 9.41595 0
685 1 61.1914 10.529 0
686 1 62.5795 10.3493 0
687 1 59.2736 12.0049 0
688 1 60.6636 11.8268 0
689 1 61.5164 12.9405 0
690 1 62.9054 12.7602 0
691 1 59.5971 14.4174 0
692 1 60.9873 14.2385 0
693 1 61.8397 15.3528 0
694 1 63.2289 15.1734 0
695 1 59.9211 16.8289 0
696 1 61.3111 16.6509 0
697 1 62.1641 17.7646 0
698 1 63.553 17.5881 0
699 1 60.248 19.2385 0
700 1 61.6371 19.0621 0
701 1 62.4908 20.1746 0
702 1 63.8792 20.0014 0
703 1 60.5775 21.6477 0
704 1 61.9648 21.4707 0
705 1 62.8161 22.583 0
706 1 64.2043 22.4115 0
707 1 60.9018 24.0631 0
708 1 62.2861 23.8758 0
709 1 63.131 24.9872 0
710 1 64.5217 24.8196 0
711 1 61.2044 26.4946 0
712 1 62.5886 26.2751 0
713 1 63.4601 27.3478 0
714 1 64.8389 27.2113 0
715 1 61.6366 28.8709 0
716 1 63.0108 28.6562 0
717 1 64.0883 0.19243 0
718 1 62.1371 1.75949 0
719 1 63.5622 1.54913 0
720 1 64.32 2.73877 0
721 1 65.6834 2.62849 0
722 1 62.443 4.21977 0
723 1 63.8171 4.04045 0
724 1 64.662 5.16133 0
725 1 66.0434 4.99928 0
726 1 62.7689 6.63943 0
727 1 64.151 6.46002 0
728 1 65.0036 7.56963 0
729 1 66.3858 7.38605 0
730 1 63.1024 9.05095 0
731 1 64.488 8.86908 0
732 1 65.3407 9.9798 0
733 1 66.7253 9.79083 0
734 1 63.432 11.462 0
735 1 64.8192 11.279 0
736 1 65.6688 12.393 0
737 1 67.0551 12.2054 0
738 1 63.7558 13.8747 0
739 1 65.1434 13.6921 0
740 1 65.9885 14.8095 0
741 1 67.3746 14.6257 0
742 1 64.0781 16.2894 0
743 1 65.4657 16.1097 0
744 1 66.3102 17.2287 0
745 1 67.695 17.0496 0
746 1 64.4033 18.7037 0
747 1 65.7907 18.5281 0
748 1 66.6417 19.643 0
749 1 68.0286 19.4637 0
750 1 64.7312 21.1153 0
751 1 66.1194 20.9417 0
752 1 66.9712 22.0564 0
753 1 68.3591 21.8733 0
754 1 65.0545 23.5256 0
755 1 66.4432 23.3549 0
756 1 67.2881 24.4756 0
757 1 68.6735 24.2845 0
758 1 65.3752 25.9309 0
759 1 66.7568 25.775 0
760 1 67.5667 26.9222 0
761 1 68.9706 26.7048 0
762 1 65.5817 28.4774 0
763 1 67.017 28.2553 0
764 1 67.9813 29.2748 0
765 1 69.3532 29.067 0
766 1 66.2197 1.36125 0
767 1 67.5706 1.10985 0
768 1 68.4178 2.20957 0
769 1 69.7791 1.99739 0
770 1 66.5524 3.71147 0
771 1 67.9258 3.50772 0
772 1 68.7979 4.59424 0
773 1 70.1729 4.37308 0
774 1 66.9057 6.09279 0
775 1 68.2843 5.89011 0
776 1 69.1476 6.9841 0
777 1 70.5262 6.75303 0
778 1 67.2387 8.48938 0
779 1 68.6166 8.28077 0
780 1 69.4576 9.39013 0
781 1 70.8285 9.16425 0
782 1 67.574 10.9035 0
783 1 68.9583 10.7036 0
784 1 69.7976 11.8284 0
785 1 71.1888 11.6349 0
786 1 67.8972 13.3244 0
787 1 69.2838 13.1386 0
788 1 70.1078 14.2751 0
789 1 71.489 14.1123 0
790 1 68.2106 15.7499 0
791 1 69.5929 15.5725 0
792 1 70.4485 16.6807 0
793 1 71.8296 16.4973 0
794 1 68.5458 18.1634 0
795 1 69.9311 17.9797 0
796 1 70.7927 19.084 0
797 1 72.1782 18.8843 0
798 1 68.8846 20.5743 0
799 1 70.2728 20.3856 0
800 1 71.1282 21.4958 0
801 1 72.5213 21.31 0
802 1 69.209 22.9878 0
803 1 70.5983 22.7972 0
804 1 71.4428 23.9176 0
805 1 72.8363 23.7361 0
806 1 69.5114 25.4044 0
807 1 70.9009 25.2105 0
808 1 71.7567 26.3131 0
809 1 73.1353 26.1584 0
810 1 69.8641 27.78 0
811 1 71.2495 27.6051 0
812 1 72.1221 28.7005 0
813 1 73.4997 28.6106 0
814 1 70.2193 0.686459 0
815 1 71.574 0.47985 0
816 1 72.4662 1.51316 0
817 1 73.8255 1.18263 0
818 1 70.6633 3.07203 0
819 1 72.0315 2.83137 0
820 1 72.9617 3.87531 0
821 1 74.3022 3.50129 0
822 1 71.057 5.44912 0
823 1 72.44 5.19313 0
824 1 73.269 6.28881 0
825 1 74.7003 6.04169 0
826 1 71.3772 7.85908 0
827 1 72.7573 7.60335 0
828 1 73.5961 8.734 0
829 1 74.953 8.46778 0
830 1 71.6531 10.284 0
831 1 72.9936 10.0235 0
832 1 73.8109 11.2423 0
833 1 75.2239 10.5888 0
834 1 71.9871 12.8126 0
835 1 73.343 12.703 0
836 1 74.2227 13.7934 0
837 1 75.6838 13.5594 0
838 1 72.3701 15.2159 0
839 1 73.772 15.0726 0
840 1 74.7051 16.0957 0
841 1 76.2606 16.069 0
842 1 72.7074 17.5756 0
843 1 74.0932 17.3277 0
844 1 74.8773 18.4474 0
845 1 73.0376 19.9957 0
846 1 74.3828 19.7223 0
847 1 75.381 20.7235 0
848 1 73.3289 22.4381 0
849 1 74.7636 22.2559 0
850 1 75.7129 23.5829 0
851 1 73.6699 24.8724 0
852 1 75.0304 24.8228 0
853 1 75.8604 25.8731 0
854 1 73.9743 27.247 0
855 1 75.514 27.253 0
856 1 75.0897 28.9062 0
857 1 74.7404 2.18421 0
858 1 75.3248 4.48761 0
859 1 75.6601 7.27572 0
860 1 75.8028 9.48167 0
861 1 75.24 12.0715 0
