ITEM: TIMESTEP
65
ITEM: NUMBER OF ATOMS
1023
ITEM: BOX BOUNDS pp pp ff
-9.7578823829098060e-01 6.9135788238290985e+01
-5.6310186378054428e-01 3.9915295863780585e+01
-2.0000000000000000e+01 2.0000000000000000e+01
ITEM: ATOMS id type x y z
1 1 -0.97579 -0.563102 0
2 1 0.484871 -0.563102 0
3 1 1.2152 0.701848 0
4 1 2.67586 0.701848 0
5 1 -0.97579 1.9668 0
6 1 0.484871 1.9668 0
7 1 1.2152 3.23175 0
8 1 2.67586 3.23175 0
9 1 -0.97579 4.4967 0
10 1 0.484871 4.4967 0
11 1 1.2152 5.76165 0
12 1 2.67586 5.76165 0
13 1 -0.97579 7.0266 0
14 1 0.484871 7.0266 0
15 1 1.2152 8.29155 0
16 1 2.67586 8.29155 0
17 1 -0.97579 9.5565 0
18 1 0.484871 9.5565 0
19 1 1.2152 10.8214 0
20 1 2.67586 10.8214 0
21 1 -0.97579 12.0864 0
22 1 0.484871 12.0864 0
23 1 1.2152 13.3513 0
24 1 2.67586 13.3513 0
25 1 -0.97579 14.6163 0
26 1 0.484871 14.6163 0
27 1 1.2152 15.8812 0
28 1 2.67586 15.8812 0
29 1 -0.97579 17.1462 0
30 1 0.484871 17.1462 0
31 1 1.2152 18.4111 0
32 1 2.67586 18.4111 0
33 1 -0.97579 19.6761 0
34 1 0.484871 19.6761 0
35 1 1.2152 20.941 0
36 1 2.67586 20.941 0
37 1 -0.97579 22.206 0
38 1 0.484871 22.206 0
39 1 1.2152 23.4709 0
40 1 2.67586 23.4709 0
41 1 -0.97579 24.7359 0
42 1 0.484871 24.7359 0
43 1 1.2152 26.0008 0
44 1 2.67586 26.0008 0
45 1 -0.97579 27.2658 0
46 1 0.484871 27.2658 0
47 1 1.2152 28.5307 0
48 1 2.67586 28.5307 0
49 1 -0.97579 29.7957 0
50 1 0.484871 29.7957 0
51 1 1.2152 31.0606 0
52 1 2.67586 31.0606 0
53 1 -0.97579 32.3256 0
54 1 0.484871 32.3256 0
55 1 1.2152 33.5905 0
56 1 2.67586 33.5905 0
57 1 -0.97579 34.8555 0
58 1 0.484871 34.8555 0
59 1 1.2152 36.1204 0
60 1 2.67586 36.1204 0
61 1 -0.97579 37.3854 0
62 1 0.484871 37.3854 0
63 1 1.2152 38.6503 0
64 1 2.67586 38.6503 0
65 1 3.40618 -0.563102 0
66 1 4.86684 -0.563102 0
67 1 5.59717 0.701848 0
68 1 7.05783 0.701848 0
69 1 3.40618 1.9668 0
70 1 4.86684 1.9668 0
71 1 5.59717 3.23175 0
72 1 7.05783 3.23175 0
73 1 3.40618 4.4967 0
74 1 4.86685 4.4967 0
75 1 5.59717 5.76165 0
76 1 7.05783 5.76165 0
77 1 3.40618 7.0266 0
78 1 4.86685 7.0266 0
79 1 5.59717 8.29155 0
80 1 7.05784 8.29155 0
81 1 3.40618 9.5565 0
82 1 4.86685 9.5565 0
83 1 5.59717 10.8214 0
84 1 7.05784 10.8214 0
85 1 3.40618 12.0864 0
86 1 4.86685 12.0864 0
87 1 5.59717 13.3513 0
88 1 7.05784 13.3513 0
89 1 3.40618 14.6163 0
90 1 4.86685 14.6163 0
91 1 5.59717 15.8812 0
92 1 7.05784 15.8812 0
93 1 3.40618 17.1462 0
94 1 4.86685 17.1462 0
95 1 5.59717 18.4111 0
96 1 7.05783 18.4111 0
97 1 3.40618 19.6761 0
98 1 4.86685 19.6761 0
99 1 5.59717 20.941 0
100 1 7.05783 20.941 0
101 1 3.40618 22.206 0
102 1 4.86685 22.206 0
103 1 5.59717 23.4709 0
104 1 7.05784 23.4709 0
105 1 3.40618 24.7359 0
106 1 4.86685 24.7359 0
107 1 5.59717 26.0008 0
108 1 7.05784 26.0008 0
109 1 3.40618 27.2658 0
110 1 4.86685 27.2658 0
111 1 5.59717 28.5307 0
112 1 7.05784 28.5307 0
113 1 3.40618 29.7957 0
114 1 4.86685 29.7957 0
115 1 5.59717 31.0606 0
116 1 7.05784 31.0606 0
117 1 3.40618 32.3256 0
118 1 4.86685 32.3256 0
119 1 5.59717 33.5905 0
120 1 7.05783 33.5905 0
121 1 3.40618 34.8555 0
122 1 4.86685 34.8555 0
123 1 5.59717 36.1204 0
124 1 7.05783 36.1204 0
125 1 3.40618 37.3854 0
126 1 4.86684 37.3854 0
127 1 5.59717 38.6503 0
128 1 7.05783 38.6503 0
129 1 7.78816 -0.563102 0
130 1 9.24882 -0.563102 0
131 1 9.97915 0.70185 0
132 1 11.4398 0.70185 0
133 1 7.78816 1.9668 0
134 1 9.24882 1.9668 0
135 1 9.97915 3.23175 0
136 1 11.4398 3.23175 0
137 1 7.78816 4.4967 0
138 1 9.24883 4.4967 0
139 1 9.97916 5.76165 0
140 1 11.4398 5.76166 0
141 1 7.78816 7.0266 0
142 1 9.24883 7.0266 0
143 1 9.97916 8.29155 0
144 1 11.4398 8.29155 0
145 1 7.78816 9.5565 0
146 1 9.24883 9.5565 0
147 1 9.97916 10.8214 0
148 1 11.4398 10.8215 0
149 1 7.78816 12.0864 0
150 1 9.24883 12.0864 0
151 1 9.97916 13.3513 0
152 1 11.4398 13.3513 0
153 1 7.78816 14.6163 0
154 1 9.24883 14.6163 0
155 1 9.97916 15.8812 0
156 1 11.4398 15.8812 0
157 1 7.78816 17.1462 0
158 1 9.24883 17.1462 0
159 1 9.97916 18.4111 0
160 1 11.4398 18.4111 0
161 1 7.78816 19.6761 0
162 1 9.24883 19.6761 0
163 1 9.97916 20.941 0
164 1 11.4398 20.941 0
165 1 7.78816 22.206 0
166 1 9.24883 22.206 0
167 1 9.97916 23.4709 0
168 1 11.4398 23.4709 0
169 1 7.78816 24.7359 0
170 1 9.24883 24.7359 0
171 1 9.97916 26.0008 0
172 1 11.4398 26.0008 0
173 1 7.78816 27.2658 0
174 1 9.24883 27.2658 0
175 1 9.97916 28.5307 0
176 1 11.4398 28.5307 0
177 1 7.78816 29.7957 0
178 1 9.24883 29.7957 0
179 1 9.97916 31.0606 0
180 1 11.4398 31.0606 0
181 1 7.78816 32.3256 0
182 1 9.24883 32.3256 0
183 1 9.97916 33.5905 0
184 1 11.4398 33.5905 0
185 1 7.78816 34.8555 0
186 1 9.24883 34.8555 0
187 1 9.97915 36.1204 0
188 1 11.4398 36.1204 0
189 1 7.78816 37.3854 0
190 1 9.24882 37.3854 0
191 1 9.97915 38.6503 0
192 1 11.4398 38.6503 0
193 1 12.1701 -0.563102 0
194 1 13.6308 -0.563102 0
195 1 14.3611 0.701857 0
196 1 15.8218 0.70186 0
197 1 12.1701 1.96681 0
198 1 13.6308 1.96681 0
199 1 14.3612 3.23177 0
200 1 15.8218 3.23178 0
201 1 12.1702 4.49671 0
202 1 13.6308 4.49672 0
203 1 14.3612 5.76168 0
204 1 15.8219 5.7617 0
205 1 12.1702 7.02661 0
206 1 13.6309 7.02662 0
207 1 14.3612 8.29158 0
208 1 15.8219 8.2916 0
209 1 12.1702 9.55651 0
210 1 13.6309 9.55652 0
211 1 14.3612 10.8215 0
212 1 15.8219 10.8215 0
213 1 12.1702 12.0864 0
214 1 13.6309 12.0864 0
215 1 14.3612 13.3514 0
216 1 15.8219 13.3514 0
217 1 12.1702 14.6163 0
218 1 13.6308 14.6163 0
219 1 14.3612 15.8813 0
220 1 15.8219 15.8813 0
221 1 12.1702 17.1462 0
222 1 13.6308 17.1462 0
223 1 14.3612 18.4112 0
224 1 15.8218 18.4112 0
225 1 12.1702 19.6761 0
226 1 13.6308 19.6761 0
227 1 14.3612 20.941 0
228 1 15.8218 20.941 0
229 1 12.1702 22.206 0
230 1 13.6308 22.206 0
231 1 14.3612 23.4709 0
232 1 15.8219 23.4709 0
233 1 12.1702 24.7359 0
234 1 13.6308 24.7359 0
235 1 14.3612 26.0008 0
236 1 15.8219 26.0008 0
237 1 12.1702 27.2658 0
238 1 13.6309 27.2658 0
239 1 14.3612 28.5307 0
240 1 15.8219 28.5307 0
241 1 12.1702 29.7957 0
242 1 13.6309 29.7957 0
243 1 14.3612 31.0606 0
244 1 15.8219 31.0606 0
245 1 12.1702 32.3256 0
246 1 13.6309 32.3256 0
247 1 14.3612 33.5905 0
248 1 15.8219 33.5905 0
249 1 12.1702 34.8555 0
250 1 13.6308 34.8555 0
251 1 14.3612 36.1204 0
252 1 15.8218 36.1204 0
253 1 12.1701 37.3854 0
254 1 13.6308 37.3854 0
255 1 14.3611 38.6503 0
256 1 15.8218 38.6503 0
257 1 16.5522 -0.563102 0
258 1 18.0128 -0.563102 0
259 1 18.7432 0.70188 0
260 1 20.2039 0.701889 0
261 1 16.5522 1.96683 0
262 1 18.0129 1.96684 0
263 1 18.7432 3.23184 0
264 1 20.2039 3.23187 0
265 1 16.5522 4.49676 0
266 1 18.0129 4.49679 0
267 1 18.7432 5.76179 0
268 1 20.204 5.76183 0
269 1 16.5522 7.02668 0
270 1 18.0129 7.02671 0
271 1 18.7433 8.2917 0
272 1 20.204 8.29177 0
273 1 16.5522 9.55658 0
274 1 18.0129 9.55662 0
275 1 18.7433 10.8216 0
276 1 20.2039 10.8217 0
277 1 16.5522 12.0865 0
278 1 18.0129 12.0865 0
279 1 18.7432 13.3515 0
280 1 20.2038 13.3515 0
281 1 16.5522 14.6163 0
282 1 18.0128 14.6164 0
283 1 18.7431 15.8813 0
284 1 20.2036 15.8813 0
285 1 16.5522 17.1462 0
286 1 18.0128 17.1463 0
287 1 18.743 18.4112 0
288 1 20.2035 18.4112 0
289 1 16.5521 19.6761 0
290 1 18.0128 19.6761 0
291 1 18.743 20.941 0
292 1 20.2035 20.941 0
293 1 16.5522 22.206 0
294 1 18.0128 22.2059 0
295 1 18.7431 23.4709 0
296 1 20.2036 23.4709 0
297 1 16.5522 24.7359 0
298 1 18.0128 24.7358 0
299 1 18.7432 26.0007 0
300 1 20.2038 26.0007 0
301 1 16.5522 27.2657 0
302 1 18.0129 27.2657 0
303 1 18.7433 28.5306 0
304 1 20.2039 28.5305 0
305 1 16.5522 29.7956 0
306 1 18.0129 29.7956 0
307 1 18.7433 31.0605 0
308 1 20.204 31.0604 0
309 1 16.5522 32.3255 0
310 1 18.0129 32.3255 0
311 1 18.7432 33.5904 0
312 1 20.204 33.5904 0
313 1 16.5522 34.8554 0
314 1 18.0129 34.8554 0
315 1 18.7432 36.1204 0
316 1 20.2039 36.1203 0
317 1 16.5522 37.3854 0
318 1 18.0129 37.3854 0
319 1 18.7432 38.6503 0
320 1 20.2039 38.6503 0
321 1 20.9342 -0.563102 0
322 1 22.3949 -0.563102 0
323 1 23.1252 0.701924 0
324 1 24.5859 0.701936 0
325 1 20.9342 1.9669 0
326 1 22.3949 1.96692 0
327 1 23.1253 3.23197 0
328 1 24.5859 3.232 0
329 1 20.9343 4.49689 0
330 1 22.395 4.49693 0
331 1 23.1253 5.76196 0
332 1 24.5859 5.76198 0
333 1 20.9343 7.02684 0
334 1 22.395 7.0269 0
335 1 23.1252 8.29183 0
336 1 24.5859 8.2918 0
337 1 20.9343 9.55673 0
338 1 22.3949 9.55674 0
339 1 23.1251 10.8216 0
340 1 24.5857 10.8216 0
341 1 20.9341 12.0866 0
342 1 22.3947 12.0865 0
343 1 23.1248 13.3513 0
344 1 24.5853 13.3514 0
345 1 20.9339 14.6164 0
346 1 22.3944 14.6163 0
347 1 23.1245 15.8812 0
348 1 24.5848 15.8812 0
349 1 20.9338 17.1462 0
350 1 22.3942 17.1462 0
351 1 23.1243 18.4111 0
352 1 24.5845 18.4111 0
353 1 20.9338 19.6761 0
354 1 22.3941 19.6761 0
355 1 23.1243 20.9411 0
356 1 24.5845 20.9411 0
357 1 20.9338 22.206 0
358 1 22.3942 22.206 0
359 1 23.1245 23.471 0
360 1 24.5848 23.471 0
361 1 20.9339 24.7358 0
362 1 22.3944 24.7359 0
363 1 23.1248 26.0008 0
364 1 24.5853 26.0008 0
365 1 20.9341 27.2656 0
366 1 22.3947 27.2657 0
367 1 23.1251 28.5306 0
368 1 24.5857 28.5306 0
369 1 20.9343 29.7955 0
370 1 22.3949 29.7955 0
371 1 23.1252 31.0604 0
372 1 24.5859 31.0604 0
373 1 20.9343 32.3254 0
374 1 22.395 32.3253 0
375 1 23.1253 33.5902 0
376 1 24.5859 33.5902 0
377 1 20.9343 34.8553 0
378 1 22.395 34.8553 0
379 1 23.1253 36.1202 0
380 1 24.5859 36.1202 0
381 1 20.9342 37.3853 0
382 1 22.3949 37.3853 0
383 1 23.1252 38.6503 0
384 1 24.5859 38.6503 0
385 1 25.3162 -0.563102 0
386 1 26.7768 -0.563102 0
387 1 27.5072 0.701962 0
388 1 28.9678 0.701966 0
389 1 25.3162 1.96699 0
390 1 26.7769 1.96701 0
391 1 27.5072 3.23205 0
392 1 28.9679 3.23202 0
393 1 25.3163 4.49703 0
394 1 26.7769 4.49702 0
395 1 27.5072 5.76193 0
396 1 28.9678 5.76188 0
397 1 25.3162 7.02689 0
398 1 26.7769 7.02685 0
399 1 27.5071 8.29165 0
400 1 28.9678 8.29159 0
401 1 25.3161 9.55663 0
402 1 26.7767 9.5566 0
403 1 27.5069 10.8213 0
404 1 28.9676 10.8212 0
405 1 25.3158 12.0863 0
406 1 26.7764 12.0863 0
407 1 27.5063 13.351 0
408 1 28.9669 13.3508 0
409 1 25.3153 14.6161 0
410 1 26.7756 14.616 0
411 1 27.5053 15.8808 0
412 1 28.9651 15.881 0
413 1 25.3148 17.1461 0
414 1 26.7747 17.1461 0
415 1 27.5047 18.4111 0
416 1 28.9644 18.4108 0
417 1 25.3146 19.6761 0
418 1 26.7746 19.6761 0
419 1 27.5047 20.9411 0
420 1 28.9644 20.9414 0
421 1 25.3148 22.2061 0
422 1 26.7747 22.2061 0
423 1 27.5053 23.4714 0
424 1 28.9651 23.4712 0
425 1 25.3153 24.7361 0
426 1 26.7756 24.7362 0
427 1 27.5063 26.0012 0
428 1 28.9669 26.0014 0
429 1 25.3158 27.2659 0
430 1 26.7764 27.2659 0
431 1 27.5069 28.5309 0
432 1 28.9676 28.531 0
433 1 25.3161 29.7956 0
434 1 26.7767 29.7956 0
435 1 27.5071 31.0605 0
436 1 28.9678 31.0606 0
437 1 25.3162 32.3253 0
438 1 26.7769 32.3253 0
439 1 27.5072 33.5903 0
440 1 28.9678 33.5903 0
441 1 25.3163 34.8552 0
442 1 26.7769 34.8552 0
443 1 27.5072 36.1201 0
444 1 28.9679 36.1202 0
445 1 25.3162 37.3852 0
446 1 26.7769 37.3852 0
447 1 27.5072 38.6502 0
448 1 28.9678 38.6502 0
449 1 29.6981 -0.563102 0
450 1 31.1587 -0.563102 0
451 1 31.8891 0.701949 0
452 1 33.3497 0.701936 0
453 1 29.6981 1.96702 0
454 1 31.1588 1.96699 0
455 1 31.8891 3.23196 0
456 1 33.3498 3.23192 0
457 1 29.6982 4.49695 0
458 1 31.1588 4.4969 0
459 1 31.8892 5.7617 0
460 1 33.3498 5.76163 0
461 1 29.6981 7.02667 0
462 1 31.1588 7.02658 0
463 1 31.8891 8.29129 0
464 1 33.3499 8.29117 0
465 1 29.698 9.55629 0
466 1 31.1588 9.55615 0
467 1 31.8891 10.8206 0
468 1 33.35 10.8204 0
469 1 29.6977 12.0858 0
470 1 31.1587 12.0854 0
471 1 31.8888 13.3497 0
472 1 33.3507 13.349 0
473 1 29.6967 14.6153 0
474 1 31.1577 14.6146 0
475 1 31.8872 15.8781 0
476 1 33.3546 15.8746 0
477 1 29.6935 17.146 0
478 1 31.1504 17.1471 0
479 1 31.8806 18.4108 0
480 1 33.3253 18.3689 0
481 1 29.6956 19.6761 0
482 1 31.1586 19.6761 0
483 1 31.8806 20.9414 0
484 1 33.3253 20.9833 0
485 1 29.6935 22.2062 0
486 1 31.1504 22.2051 0
487 1 31.8872 23.4741 0
488 1 33.3546 23.4776 0
489 1 29.6967 24.7369 0
490 1 31.1577 24.7376 0
491 1 31.8888 26.0025 0
492 1 33.3507 26.0032 0
493 1 29.6977 27.2663 0
494 1 31.1587 27.2668 0
495 1 31.8891 28.5316 0
496 1 33.35 28.5318 0
497 1 29.698 29.7959 0
498 1 31.1588 29.796 0
499 1 31.8891 31.0609 0
500 1 33.3499 31.061 0
501 1 29.6981 32.3255 0
502 1 31.1588 32.3256 0
503 1 31.8892 33.5905 0
504 1 33.3498 33.5906 0
505 1 29.6982 34.8552 0
506 1 31.1588 34.8553 0
507 1 31.8891 36.1202 0
508 1 33.3498 36.1203 0
509 1 29.6981 37.3852 0
510 1 31.1588 37.3852 0
511 1 31.8891 38.6502 0
512 1 33.3497 38.6503 0
513 1 34.08 -0.563102 0
514 1 35.5406 -0.563102 0
515 1 36.271 0.701901 0
516 1 37.7316 0.701891 0
517 1 34.08 1.96694 0
518 1 35.5407 1.96691 0
519 1 36.271 3.23185 0
520 1 37.7317 3.23183 0
521 1 34.0801 4.49678 0
522 1 35.5408 4.49675 0
523 1 36.2711 5.76155 0
524 1 37.7317 5.76154 0
525 1 34.0801 7.02638 0
526 1 35.5409 7.02632 0
527 1 36.2712 8.29104 0
528 1 37.732 8.29107 0
529 1 34.0802 9.55571 0
530 1 35.541 9.5557 0
531 1 36.2715 10.8203 0
532 1 37.7322 10.8204 0
533 1 34.0805 12.0847 0
534 1 35.5415 12.0846 0
535 1 36.2721 13.3493 0
536 1 37.7327 13.3495 0
537 1 34.0821 14.6123 0
538 1 35.542 14.6133 0
539 1 36.2722 15.8792 0
540 1 37.7336 15.8786 0
541 1 34.0839 17.1388 0
542 1 35.5407 17.1461 0
543 1 36.2755 18.4041 0
544 1 37.735 18.4035 0
545 1 35.5895 19.6761 0
546 1 36.2755 20.9481 0
547 1 37.735 20.9487 0
548 1 34.0839 22.2134 0
549 1 35.5407 22.2061 0
550 1 36.2722 23.473 0
551 1 37.7336 23.4736 0
552 1 34.0821 24.7399 0
553 1 35.542 24.7389 0
554 1 36.2721 26.0028 0
555 1 37.7327 26.0027 0
556 1 34.0805 27.2675 0
557 1 35.5415 27.2676 0
558 1 36.2715 28.5319 0
559 1 37.7322 28.5318 0
560 1 34.0802 29.7965 0
561 1 35.541 29.7965 0
562 1 36.2712 31.0612 0
563 1 37.732 31.0611 0
564 1 34.0801 32.3258 0
565 1 35.5409 32.3259 0
566 1 36.2711 33.5906 0
567 1 37.7317 33.5907 0
568 1 34.0801 34.8554 0
569 1 35.5408 34.8554 0
570 1 36.271 36.1203 0
571 1 37.7317 36.1204 0
572 1 34.08 37.3853 0
573 1 35.5407 37.3853 0
574 1 36.271 38.6503 0
575 1 37.7316 38.6503 0
576 1 38.4619 -0.563102 0
577 1 39.9226 -0.563102 0
578 1 40.6529 0.701872 0
579 1 42.1136 0.701867 0
580 1 38.4619 1.96686 0
581 1 39.9226 1.96685 0
582 1 40.6529 3.23179 0
583 1 42.1136 3.23179 0
584 1 38.462 4.49672 0
585 1 39.9227 4.49673 0
586 1 40.653 5.76161 0
587 1 42.1136 5.76164 0
588 1 38.4621 7.02637 0
589 1 39.9228 7.02638 0
590 1 40.6531 8.29127 0
591 1 42.1137 8.29133 0
592 1 38.4623 9.55581 0
593 1 39.923 9.55594 0
594 1 40.6534 10.8208 0
595 1 42.1139 10.8209 0
596 1 38.4627 12.0852 0
597 1 39.9233 12.0854 0
598 1 40.6537 13.3503 0
599 1 42.1141 13.3506 0
600 1 38.4632 14.6143 0
601 1 39.9238 14.6146 0
602 1 40.6542 15.88 0
603 1 42.1144 15.8804 0
604 1 38.4644 17.1424 0
605 1 39.9242 17.1441 0
606 1 40.6545 18.4105 0
607 1 42.1145 18.4107 0
608 1 38.4656 19.6761 0
609 1 39.9246 19.6761 0
610 1 40.6545 20.9417 0
611 1 42.1145 20.9415 0
612 1 38.4644 22.2098 0
613 1 39.9242 22.2081 0
614 1 40.6542 23.4722 0
615 1 42.1144 23.4718 0
616 1 38.4632 24.7379 0
617 1 39.9238 24.7376 0
618 1 40.6537 26.0019 0
619 1 42.1141 26.0016 0
620 1 38.4627 27.267 0
621 1 39.9233 27.2668 0
622 1 40.6534 28.5314 0
623 1 42.1139 28.5313 0
624 1 38.4623 29.7964 0
625 1 39.923 29.7963 0
626 1 40.6531 31.0609 0
627 1 42.1137 31.0609 0
628 1 38.4621 32.3258 0
629 1 39.9228 32.3258 0
630 1 40.653 33.5906 0
631 1 42.1136 33.5906 0
632 1 38.462 34.8555 0
633 1 39.9227 34.8555 0
634 1 40.6529 36.1204 0
635 1 42.1136 36.1204 0
636 1 38.4619 37.3853 0
637 1 39.9226 37.3853 0
638 1 40.6529 38.6503 0
639 1 42.1136 38.6503 0
640 1 42.8439 -0.563102 0
641 1 44.3046 -0.563102 0
642 1 45.0349 0.70186 0
643 1 46.4956 0.701859 0
644 1 42.8439 1.96683 0
645 1 44.3046 1.96682 0
646 1 45.0349 3.23178 0
647 1 46.4956 3.23178 0
648 1 42.8439 4.49673 0
649 1 44.3046 4.49674 0
650 1 45.0349 5.76169 0
651 1 46.4955 5.7617 0
652 1 42.8439 7.02653 0
653 1 44.3045 7.02658 0
654 1 45.0349 8.29151 0
655 1 46.4955 8.29156 0
656 1 42.8441 9.55626 0
657 1 44.3046 9.55636 0
658 1 45.0349 10.8213 0
659 1 46.4955 10.8214 0
660 1 42.8443 12.086 0
661 1 44.3047 12.0861 0
662 1 45.0351 13.3511 0
663 1 46.4955 13.3512 0
664 1 42.8445 14.6157 0
665 1 44.3048 14.6159 0
666 1 45.0351 15.8811 0
667 1 46.4955 15.8811 0
668 1 42.8446 17.1457 0
669 1 44.3049 17.146 0
670 1 45.0351 18.4111 0
671 1 46.4955 18.4111 0
672 1 42.8446 19.6761 0
673 1 44.3049 19.6761 0
674 1 45.0351 20.9411 0
675 1 46.4955 20.9411 0
676 1 42.8446 22.2065 0
677 1 44.3049 22.2062 0
678 1 45.0351 23.4711 0
679 1 46.4955 23.4711 0
680 1 42.8445 24.7365 0
681 1 44.3048 24.7363 0
682 1 45.0351 26.0011 0
683 1 46.4955 26.001 0
684 1 42.8443 27.2662 0
685 1 44.3047 27.2661 0
686 1 45.0349 28.5309 0
687 1 46.4955 28.5308 0
688 1 42.8441 29.7959 0
689 1 44.3046 29.7958 0
690 1 45.0349 31.0607 0
691 1 46.4955 31.0606 0
692 1 42.8439 32.3257 0
693 1 44.3045 32.3256 0
694 1 45.0349 33.5905 0
695 1 46.4955 33.5905 0
696 1 42.8439 34.8555 0
697 1 44.3046 34.8555 0
698 1 45.0349 36.1204 0
699 1 46.4956 36.1204 0
700 1 42.8439 37.3854 0
701 1 44.3046 37.3854 0
702 1 45.0349 38.6503 0
703 1 46.4956 38.6503 0
704 1 47.2259 -0.563102 0
705 1 48.6866 -0.563102 0
706 1 49.4169 0.701857 0
707 1 50.8776 0.701856 0
708 1 47.2259 1.96682 0
709 1 48.6866 1.96682 0
710 1 49.4169 3.23178 0
711 1 50.8775 3.23177 0
712 1 47.2259 4.49674 0
713 1 48.6865 4.49674 0
714 1 49.4169 5.7617 0
715 1 50.8775 5.7617 0
716 1 47.2258 7.02666 0
717 1 48.6865 7.02667 0
718 1 49.4168 8.29162 0
719 1 50.8775 8.29163 0
720 1 47.2258 9.55652 0
721 1 48.6864 9.55656 0
722 1 49.4167 10.8215 0
723 1 50.8774 10.8215 0
724 1 47.2258 12.0864 0
725 1 48.6863 12.0864 0
726 1 49.4166 13.3514 0
727 1 50.8773 13.3514 0
728 1 47.2258 14.6162 0
729 1 48.6863 14.6163 0
730 1 49.4166 15.8813 0
731 1 50.8772 15.8813 0
732 1 47.2258 17.1461 0
733 1 48.6863 17.1462 0
734 1 49.4165 18.4111 0
735 1 50.8772 18.4112 0
736 1 47.2258 19.6761 0
737 1 48.6863 19.6761 0
738 1 49.4165 20.941 0
739 1 50.8772 20.941 0
740 1 47.2258 22.2061 0
741 1 48.6863 22.206 0
742 1 49.4166 23.4709 0
743 1 50.8772 23.4709 0
744 1 47.2258 24.736 0
745 1 48.6863 24.7359 0
746 1 49.4166 26.0008 0
747 1 50.8773 26.0008 0
748 1 47.2258 27.2658 0
749 1 48.6863 27.2658 0
750 1 49.4167 28.5307 0
751 1 50.8774 28.5307 0
752 1 47.2258 29.7957 0
753 1 48.6864 29.7956 0
754 1 49.4168 31.0606 0
755 1 50.8775 31.0606 0
756 1 47.2258 32.3255 0
757 1 48.6865 32.3255 0
758 1 49.4169 33.5905 0
759 1 50.8775 33.5905 0
760 1 47.2259 34.8555 0
761 1 48.6865 34.8555 0
762 1 49.4169 36.1204 0
763 1 50.8775 36.1204 0
764 1 47.2259 37.3854 0
765 1 48.6866 37.3854 0
766 1 49.4169 38.6503 0
767 1 50.8776 38.6503 0
768 1 51.6079 -0.563102 0
769 1 53.0686 -0.563102 0
770 1 53.7989 0.701853 0
771 1 55.2595 0.701852 0
772 1 51.6079 1.96681 0
773 1 53.0685 1.96681 0
774 1 53.7989 3.23176 0
775 1 55.2595 3.23176 0
776 1 51.6079 4.49673 0
777 1 53.0685 4.49673 0
778 1 53.7988 5.76168 0
779 1 55.2595 5.76167 0
780 1 51.6078 7.02665 0
781 1 53.0685 7.02665 0
782 1 53.7988 8.29159 0
783 1 55.2595 8.29159 0
784 1 51.6078 9.55657 0
785 1 53.0684 9.55657 0
786 1 53.7988 10.8215 0
787 1 55.2595 10.8215 0
788 1 51.6077 12.0865 0
789 1 53.0684 12.0865 0
790 1 53.7987 13.3514 0
791 1 55.2594 13.3514 0
792 1 51.6076 14.6164 0
793 1 53.0683 14.6164 0
794 1 53.7986 15.8813 0
795 1 55.2594 15.8813 0
796 1 51.6075 17.1462 0
797 1 53.0682 17.1462 0
798 1 53.7986 18.4112 0
799 1 55.2593 18.4112 0
800 1 51.6075 19.6761 0
801 1 53.0682 19.6761 0
802 1 53.7986 20.941 0
803 1 55.2593 20.941 0
804 1 51.6075 22.206 0
805 1 53.0682 22.206 0
806 1 53.7986 23.4709 0
807 1 55.2594 23.4709 0
808 1 51.6076 24.7358 0
809 1 53.0683 24.7358 0
810 1 53.7987 26.0008 0
811 1 55.2594 26.0008 0
812 1 51.6077 27.2657 0
813 1 53.0684 27.2657 0
814 1 53.7988 28.5307 0
815 1 55.2595 28.5307 0
816 1 51.6078 29.7956 0
817 1 53.0684 29.7956 0
818 1 53.7988 31.0606 0
819 1 55.2595 31.0606 0
820 1 51.6078 32.3255 0
821 1 53.0685 32.3255 0
822 1 53.7988 33.5905 0
823 1 55.2595 33.5905 0
824 1 51.6079 34.8555 0
825 1 53.0685 34.8555 0
826 1 53.7989 36.1204 0
827 1 55.2595 36.1204 0
828 1 51.6079 37.3854 0
829 1 53.0685 37.3854 0
830 1 53.7989 38.6503 0
831 1 55.2595 38.6503 0
832 1 55.9899 -0.563102 0
833 1 57.4505 -0.563102 0
834 1 58.1809 0.701849 0
835 1 59.6415 0.701849 0
836 1 55.9899 1.9668 0
837 1 57.4505 1.9668 0
838 1 58.1808 3.23175 0
839 1 59.6415 3.23175 0
840 1 55.9899 4.49671 0
841 1 57.4505 4.49671 0
842 1 58.1808 5.76166 0
843 1 59.6415 5.76165 0
844 1 55.9898 7.02662 0
845 1 57.4505 7.02662 0
846 1 58.1808 8.29156 0
847 1 59.6415 8.29156 0
848 1 55.9898 9.55653 0
849 1 57.4505 9.55652 0
850 1 58.1808 10.8215 0
851 1 59.6415 10.8215 0
852 1 55.9898 12.0864 0
853 1 57.4505 12.0864 0
854 1 58.1808 13.3514 0
855 1 59.6415 13.3514 0
856 1 55.9897 14.6163 0
857 1 57.4504 14.6163 0
858 1 58.1808 15.8813 0
859 1 59.6415 15.8813 0
860 1 55.9897 17.1462 0
861 1 57.4504 17.1462 0
862 1 58.1807 18.4112 0
863 1 59.6415 18.4112 0
864 1 55.9897 19.6761 0
865 1 57.4504 19.6761 0
866 1 58.1807 20.941 0
867 1 59.6415 20.941 0
868 1 55.9897 22.206 0
869 1 57.4504 22.206 0
870 1 58.1808 23.4709 0
871 1 59.6415 23.4709 0
872 1 55.9897 24.7359 0
873 1 57.4504 24.7359 0
874 1 58.1808 26.0008 0
875 1 59.6415 26.0008 0
876 1 55.9898 27.2658 0
877 1 57.4505 27.2658 0
878 1 58.1808 28.5307 0
879 1 59.6415 28.5307 0
880 1 55.9898 29.7957 0
881 1 57.4505 29.7957 0
882 1 58.1808 31.0606 0
883 1 59.6415 31.0606 0
884 1 55.9898 32.3256 0
885 1 57.4505 32.3256 0
886 1 58.1808 33.5905 0
887 1 59.6415 33.5905 0
888 1 55.9899 34.8555 0
889 1 57.4505 34.8555 0
890 1 58.1808 36.1204 0
891 1 59.6415 36.1204 0
892 1 55.9899 37.3854 0
893 1 57.4505 37.3854 0
894 1 58.1809 38.6503 0
895 1 59.6415 38.6503 0
896 1 60.3718 -0.563102 0
897 1 61.8325 -0.563102 0
898 1 62.5628 0.701848 0
899 1 64.0235 0.701848 0
900 1 60.3718 1.9668 0
901 1 61.8325 1.9668 0
902 1 62.5628 3.23175 0
903 1 64.0235 3.23175 0
904 1 60.3718 4.4967 0
905 1 61.8325 4.4967 0
906 1 62.5628 5.76165 0
907 1 64.0235 5.76165 0
908 1 60.3718 7.0266 0
909 1 61.8325 7.0266 0
910 1 62.5628 8.29155 0
911 1 64.0235 8.29155 0
912 1 60.3718 9.55651 0
913 1 61.8325 9.5565 0
914 1 62.5628 10.8215 0
915 1 64.0235 10.8214 0
916 1 60.3718 12.0864 0
917 1 61.8325 12.0864 0
918 1 62.5628 13.3514 0
919 1 64.0235 13.3513 0
920 1 60.3718 14.6163 0
921 1 61.8325 14.6163 0
922 1 62.5628 15.8813 0
923 1 64.0235 15.8812 0
924 1 60.3718 17.1462 0
925 1 61.8325 17.1462 0
926 1 62.5628 18.4111 0
927 1 64.0235 18.4111 0
928 1 60.3718 19.6761 0
929 1 61.8325 19.6761 0
930 1 62.5628 20.941 0
931 1 64.0235 20.941 0
932 1 60.3718 22.206 0
933 1 61.8325 22.206 0
934 1 62.5628 23.4709 0
935 1 64.0235 23.4709 0
936 1 60.3718 24.7359 0
937 1 61.8325 24.7359 0
938 1 62.5628 26.0008 0
939 1 64.0235 26.0008 0
940 1 60.3718 27.2658 0
941 1 61.8325 27.2658 0
942 1 62.5628 28.5307 0
943 1 64.0235 28.5307 0
944 1 60.3718 29.7957 0
945 1 61.8325 29.7957 0
946 1 62.5628 31.0606 0
947 1 64.0235 31.0606 0
948 1 60.3718 32.3256 0
949 1 61.8325 32.3256 0
950 1 62.5628 33.5905 0
951 1 64.0235 33.5905 0
952 1 60.3718 34.8555 0
953 1 61.8325 34.8555 0
954 1 62.5628 36.1204 0
955 1 64.0235 36.1204 0
956 1 60.3718 37.3854 0
957 1 61.8325 37.3854 0
958 1 62.5628 38.6503 0
959 1 64.0235 38.6503 0
960 1 64.7538 -0.563102 0
961 1 66.2145 -0.563102 0
962 1 66.9448 0.701848 0
963 1 68.4055 0.701848 0
964 1 64.7538 1.9668 0
965 1 66.2145 1.9668 0
966 1 66.9448 3.23175 0
967 1 68.4055 3.23175 0
968 1 64.7538 4.4967 0
969 1 66.2145 4.4967 0
970 1 66.9448 5.76165 0
971 1 68.4055 5.76165 0
972 1 64.7538 7.0266 0
973 1 66.2145 7.0266 0
974 1 66.9448 8.29155 0
975 1 68.4055 8.29155 0
976 1 64.7538 9.5565 0
977 1 66.2145 9.5565 0
978 1 66.9448 10.8214 0
979 1 68.4055 10.8214 0
980 1 64.7538 12.0864 0
981 1 66.2145 12.0864 0
982 1 66.9448 13.3513 0
983 1 68.4055 13.3513 0
984 1 64.7538 14.6163 0
985 1 66.2145 14.6163 0
986 1 66.9448 15.8812 0
987 1 68.4055 15.8812 0
988 1 64.7538 17.1462 0
989 1 66.2145 17.1462 0
990 1 66.9448 18.4111 0
991 1 68.4055 18.4111 0
992 1 64.7538 19.6761 0
993 1 66.2145 19.6761 0
994 1 66.9448 20.941 0
995 1 68.4055 20.941 0
996 1 64.7538 22.206 0
997 1 66.2145 22.206 0
998 1 66.9448 23.4709 0
999 1 68.4055 23.4709 0
1000 1 64.7538 24.7359 0
1001 1 66.2145 24.7359 0
1002 1 66.9448 26.0008 0
1003 1 68.4055 26.0008 0
1004 1 64.7538 27.2658 0
1005 1 66.2145 27.2658 0
1006 1 66.9448 28.5307 0
1007 1 68.4055 28.5307 0
1008 1 64.7538 29.7957 0
1009 1 66.2145 29.7957 0
1010 1 66.9448 31.0606 0
1011 1 68.4055 31.0606 0
1012 1 64.7538 32.3256 0
1013 1 66.2145 32.3256 0
1014 1 66.9448 33.5905 0
1015 1 68.4055 33.5905 0
1016 1 64.7538 34.8555 0
1017 1 66.2145 34.8555 0
1018 1 66.9448 36.1204 0
1019 1 68.4055 36.1204 0
1020 1 64.7538 37.3854 0
1021 1 66.2145 37.3854 0
1022 1 66.9448 38.6503 0
1023 1 68.4055 38.6503 0
