ITEM: TIMESTEP
20
ITEM: NUMBER OF ATOMS
1024
ITEM: BOX BOUNDS pp pp ff
5.5798152087771458e-01 6.7602018479122236e+01
3.2215067946870779e-01 3.9030043320531291e+01
-2.0000000000000000e+01 2.0000000000000000e+01
ITEM: ATOMS id type x y z
1 1 0.557982 39.03 0
2 1 1.95473 39.03 0
3 1 2.65311 1.53177 0
4 1 4.04986 1.53177 0
5 1 0.557982 2.74139 0
6 1 1.95473 2.74139 0
7 1 2.65311 3.95102 0
8 1 4.04986 3.95102 0
9 1 0.557982 5.16064 0
10 1 1.95473 5.16064 0
11 1 2.65311 6.37026 0
12 1 4.04986 6.37026 0
13 1 67.602 7.57988 0
14 1 1.95473 7.57988 0
15 1 2.65311 8.7895 0
16 1 4.04986 8.7895 0
17 1 0.557981 9.99912 0
18 1 1.95473 9.99912 0
19 1 2.65311 11.2087 0
20 1 4.04986 11.2087 0
21 1 0.557982 12.4184 0
22 1 1.95473 12.4184 0
23 1 2.65311 13.628 0
24 1 4.04986 13.628 0
25 1 0.557982 14.8376 0
26 1 1.95473 14.8376 0
27 1 2.65311 16.0472 0
28 1 4.04986 16.0472 0
29 1 0.557982 17.2569 0
30 1 1.95473 17.2569 0
31 1 2.65311 18.4665 0
32 1 4.04986 18.4665 0
33 1 0.557982 19.6761 0
34 1 1.95473 19.6761 0
35 1 2.65311 20.8857 0
36 1 4.04986 20.8857 0
37 1 0.557982 22.0953 0
38 1 1.95473 22.0953 0
39 1 2.65311 23.305 0
40 1 4.04986 23.305 0
41 1 67.602 24.5146 0
42 1 1.95473 24.5146 0
43 1 2.65311 25.7242 0
44 1 4.04986 25.7242 0
45 1 0.557981 26.9338 0
46 1 1.95473 26.9338 0
47 1 2.65311 28.1434 0
48 1 4.04986 28.1434 0
49 1 0.557982 29.3531 0
50 1 1.95473 29.3531 0
51 1 2.65311 30.5627 0
52 1 4.04986 30.5627 0
53 1 0.557982 31.7723 0
54 1 1.95473 31.7723 0
55 1 2.65311 32.9819 0
56 1 4.04986 32.9819 0
57 1 0.557982 34.1916 0
58 1 1.95473 34.1916 0
59 1 2.65311 35.4012 0
60 1 4.04986 35.4012 0
61 1 0.557982 36.6108 0
62 1 1.95473 36.6108 0
63 1 2.65311 37.8204 0
64 1 4.04986 37.8204 0
65 1 4.74823 39.03 0
66 1 6.14498 39.03 0
67 1 6.84336 1.53177 0
68 1 8.24011 1.53177 0
69 1 4.74823 2.74139 0
70 1 6.14498 2.74139 0
71 1 6.84336 3.95102 0
72 1 8.24011 3.95102 0
73 1 4.74823 5.16064 0
74 1 6.14498 5.16064 0
75 1 6.84336 6.37026 0
76 1 8.24011 6.37026 0
77 1 4.74823 7.57988 0
78 1 6.14498 7.57988 0
79 1 6.84336 8.7895 0
80 1 8.24011 8.7895 0
81 1 4.74823 9.99912 0
82 1 6.14498 9.99912 0
83 1 6.84336 11.2087 0
84 1 8.24011 11.2087 0
85 1 4.74823 12.4184 0
86 1 6.14498 12.4184 0
87 1 6.84336 13.628 0
88 1 8.24011 13.628 0
89 1 4.74823 14.8376 0
90 1 6.14498 14.8376 0
91 1 6.84336 16.0472 0
92 1 8.24011 16.0472 0
93 1 4.74823 17.2569 0
94 1 6.14498 17.2569 0
95 1 6.84336 18.4665 0
96 1 8.24011 18.4665 0
97 1 4.74823 19.6761 0
98 1 6.14498 19.6761 0
99 1 6.84336 20.8857 0
100 1 8.24011 20.8857 0
101 1 4.74823 22.0953 0
102 1 6.14498 22.0953 0
103 1 6.84336 23.305 0
104 1 8.24011 23.305 0
105 1 4.74823 24.5146 0
106 1 6.14498 24.5146 0
107 1 6.84336 25.7242 0
108 1 8.24011 25.7242 0
109 1 4.74823 26.9338 0
110 1 6.14498 26.9338 0
111 1 6.84336 28.1434 0
112 1 8.24011 28.1434 0
113 1 4.74823 29.3531 0
114 1 6.14498 29.3531 0
115 1 6.84336 30.5627 0
116 1 8.24011 30.5627 0
117 1 4.74823 31.7723 0
118 1 6.14498 31.7723 0
119 1 6.84336 32.9819 0
120 1 8.24011 32.9819 0
121 1 4.74823 34.1916 0
122 1 6.14498 34.1916 0
123 1 6.84336 35.4012 0
124 1 8.24011 35.4012 0
125 1 4.74823 36.6108 0
126 1 6.14498 36.6108 0
127 1 6.84336 37.8204 0
128 1 8.24011 37.8204 0
129 1 8.93849 39.03 0
130 1 10.3352 39.03 0
131 1 11.0336 1.53177 0
132 1 12.4304 1.53177 0
133 1 8.93849 2.74139 0
134 1 10.3352 2.74139 0
135 1 11.0336 3.95102 0
136 1 12.4304 3.95102 0
137 1 8.93849 5.16064 0
138 1 10.3352 5.16064 0
139 1 11.0336 6.37026 0
140 1 12.4304 6.37026 0
141 1 8.93849 7.57988 0
142 1 10.3352 7.57988 0
143 1 11.0336 8.7895 0
144 1 12.4304 8.7895 0
145 1 8.93849 9.99912 0
146 1 10.3352 9.99912 0
147 1 11.0336 11.2087 0
148 1 12.4304 11.2087 0
149 1 8.93849 12.4184 0
150 1 10.3352 12.4184 0
151 1 11.0336 13.628 0
152 1 12.4304 13.628 0
153 1 8.93849 14.8376 0
154 1 10.3352 14.8376 0
155 1 11.0336 16.0472 0
156 1 12.4304 16.0472 0
157 1 8.93849 17.2569 0
158 1 10.3352 17.2569 0
159 1 11.0336 18.4665 0
160 1 12.4304 18.4665 0
161 1 8.93849 19.6761 0
162 1 10.3352 19.6761 0
163 1 11.0336 20.8857 0
164 1 12.4304 20.8857 0
165 1 8.93849 22.0953 0
166 1 10.3352 22.0953 0
167 1 11.0336 23.305 0
168 1 12.4304 23.305 0
169 1 8.93849 24.5146 0
170 1 10.3352 24.5146 0
171 1 11.0336 25.7242 0
172 1 12.4304 25.7242 0
173 1 8.93849 26.9338 0
174 1 10.3352 26.9338 0
175 1 11.0336 28.1434 0
176 1 12.4304 28.1434 0
177 1 8.93849 29.3531 0
178 1 10.3352 29.3531 0
179 1 11.0336 30.5627 0
180 1 12.4304 30.5627 0
181 1 8.93849 31.7723 0
182 1 10.3352 31.7723 0
183 1 11.0336 32.9819 0
184 1 12.4304 32.9819 0
185 1 8.93849 34.1916 0
186 1 10.3352 34.1916 0
187 1 11.0336 35.4012 0
188 1 12.4304 35.4012 0
189 1 8.93849 36.6108 0
190 1 10.3352 36.6108 0
191 1 11.0336 37.8204 0
192 1 12.4304 37.8204 0
193 1 13.1287 39.03 0
194 1 14.5255 39.03 0
195 1 15.2239 1.53177 0
196 1 16.6206 1.53177 0
197 1 13.1287 2.74139 0
198 1 14.5255 2.74139 0
199 1 15.2239 3.95102 0
200 1 16.6206 3.95102 0
201 1 13.1287 5.16064 0
202 1 14.5255 5.16064 0
203 1 15.2239 6.37026 0
204 1 16.6206 6.37026 0
205 1 13.1287 7.57988 0
206 1 14.5255 7.57988 0
207 1 15.2239 8.7895 0
208 1 16.6206 8.7895 0
209 1 13.1287 9.99912 0
210 1 14.5255 9.99912 0
211 1 15.2239 11.2087 0
212 1 16.6206 11.2087 0
213 1 13.1287 12.4184 0
214 1 14.5255 12.4184 0
215 1 15.2239 13.628 0
216 1 16.6206 13.628 0
217 1 13.1287 14.8376 0
218 1 14.5255 14.8376 0
219 1 15.2239 16.0472 0
220 1 16.6206 16.0472 0
221 1 13.1287 17.2569 0
222 1 14.5255 17.2569 0
223 1 15.2239 18.4665 0
224 1 16.6206 18.4665 0
225 1 13.1287 19.6761 0
226 1 14.5255 19.6761 0
227 1 15.2239 20.8857 0
228 1 16.6206 20.8857 0
229 1 13.1287 22.0953 0
230 1 14.5255 22.0953 0
231 1 15.2239 23.305 0
232 1 16.6206 23.305 0
233 1 13.1287 24.5146 0
234 1 14.5255 24.5146 0
235 1 15.2239 25.7242 0
236 1 16.6206 25.7242 0
237 1 13.1287 26.9338 0
238 1 14.5255 26.9338 0
239 1 15.2239 28.1434 0
240 1 16.6206 28.1434 0
241 1 13.1287 29.3531 0
242 1 14.5255 29.3531 0
243 1 15.2239 30.5627 0
244 1 16.6206 30.5627 0
245 1 13.1287 31.7723 0
246 1 14.5255 31.7723 0
247 1 15.2239 32.9819 0
248 1 16.6206 32.9819 0
249 1 13.1287 34.1916 0
250 1 14.5255 34.1916 0
251 1 15.2239 35.4012 0
252 1 16.6206 35.4012 0
253 1 13.1287 36.6108 0
254 1 14.5255 36.6108 0
255 1 15.2239 37.8204 0
256 1 16.6206 37.8204 0
257 1 17.319 39.03 0
258 1 18.7157 39.03 0
259 1 19.4141 1.53177 0
260 1 20.8109 1.53177 0
261 1 17.319 2.74139 0
262 1 18.7157 2.74139 0
263 1 19.4141 3.95102 0
264 1 20.8109 3.95102 0
265 1 17.319 5.16064 0
266 1 18.7157 5.16064 0
267 1 19.4141 6.37026 0
268 1 20.8109 6.37026 0
269 1 17.319 7.57988 0
270 1 18.7157 7.57988 0
271 1 19.4141 8.7895 0
272 1 20.8109 8.7895 0
273 1 17.319 9.99912 0
274 1 18.7157 9.99912 0
275 1 19.4141 11.2087 0
276 1 20.8109 11.2087 0
277 1 17.319 12.4184 0
278 1 18.7157 12.4184 0
279 1 19.4141 13.628 0
280 1 20.8109 13.628 0
281 1 17.319 14.8376 0
282 1 18.7157 14.8376 0
283 1 19.4141 16.0472 0
284 1 20.8109 16.0472 0
285 1 17.319 17.2569 0
286 1 18.7157 17.2569 0
287 1 19.4141 18.4665 0
288 1 20.8109 18.4665 0
289 1 17.319 19.6761 0
290 1 18.7157 19.6761 0
291 1 19.4141 20.8857 0
292 1 20.8109 20.8857 0
293 1 17.319 22.0953 0
294 1 18.7157 22.0953 0
295 1 19.4141 23.305 0
296 1 20.8109 23.305 0
297 1 17.319 24.5146 0
298 1 18.7157 24.5146 0
299 1 19.4141 25.7242 0
300 1 20.8109 25.7242 0
301 1 17.319 26.9338 0
302 1 18.7157 26.9338 0
303 1 19.4141 28.1434 0
304 1 20.8109 28.1434 0
305 1 17.319 29.3531 0
306 1 18.7157 29.3531 0
307 1 19.4141 30.5627 0
308 1 20.8109 30.5627 0
309 1 17.319 31.7723 0
310 1 18.7157 31.7723 0
311 1 19.4141 32.9819 0
312 1 20.8109 32.9819 0
313 1 17.319 34.1916 0
314 1 18.7157 34.1916 0
315 1 19.4141 35.4012 0
316 1 20.8109 35.4012 0
317 1 17.319 36.6108 0
318 1 18.7157 36.6108 0
319 1 19.4141 37.8204 0
320 1 20.8109 37.8204 0
321 1 21.5092 39.03 0
322 1 22.906 39.03 0
323 1 23.6044 1.53177 0
324 1 25.0011 1.53177 0
325 1 21.5092 2.74139 0
326 1 22.906 2.74139 0
327 1 23.6044 3.95102 0
328 1 25.0011 3.95102 0
329 1 21.5092 5.16064 0
330 1 22.906 5.16064 0
331 1 23.6044 6.37026 0
332 1 25.0011 6.37026 0
333 1 21.5092 7.57988 0
334 1 22.906 7.57988 0
335 1 23.6044 8.7895 0
336 1 25.0011 8.7895 0
337 1 21.5092 9.99912 0
338 1 22.906 9.99912 0
339 1 23.6044 11.2087 0
340 1 25.0011 11.2087 0
341 1 21.5092 12.4184 0
342 1 22.906 12.4184 0
343 1 23.6044 13.628 0
344 1 25.0011 13.628 0
345 1 21.5092 14.8376 0
346 1 22.906 14.8376 0
347 1 23.6044 16.0472 0
348 1 25.0011 16.0472 0
349 1 21.5092 17.2569 0
350 1 22.906 17.2569 0
351 1 23.6044 18.4665 0
352 1 25.0011 18.4665 0
353 1 21.5092 19.6761 0
354 1 22.906 19.6761 0
355 1 23.6044 20.8857 0
356 1 25.0011 20.8857 0
357 1 21.5092 22.0953 0
358 1 22.906 22.0953 0
359 1 23.6044 23.305 0
360 1 25.0011 23.305 0
361 1 21.5092 24.5146 0
362 1 22.906 24.5146 0
363 1 23.6044 25.7242 0
364 1 25.0011 25.7242 0
365 1 21.5092 26.9338 0
366 1 22.906 26.9338 0
367 1 23.6044 28.1434 0
368 1 25.0011 28.1434 0
369 1 21.5092 29.3531 0
370 1 22.906 29.3531 0
371 1 23.6044 30.5627 0
372 1 25.0011 30.5627 0
373 1 21.5092 31.7723 0
374 1 22.906 31.7723 0
375 1 23.6044 32.9819 0
376 1 25.0011 32.9819 0
377 1 21.5092 34.1916 0
378 1 22.906 34.1916 0
379 1 23.6044 35.4012 0
380 1 25.0011 35.4012 0
381 1 21.5092 36.6108 0
382 1 22.906 36.6108 0
383 1 23.6044 37.8204 0
384 1 25.0011 37.8204 0
385 1 25.6995 39.03 0
386 1 27.0962 39.03 0
387 1 27.7946 1.53177 0
388 1 29.1914 1.53177 0
389 1 25.6995 2.74139 0
390 1 27.0962 2.74139 0
391 1 27.7946 3.95102 0
392 1 29.1914 3.95102 0
393 1 25.6995 5.16064 0
394 1 27.0962 5.16064 0
395 1 27.7946 6.37026 0
396 1 29.1914 6.37026 0
397 1 25.6995 7.57988 0
398 1 27.0962 7.57988 0
399 1 27.7946 8.7895 0
400 1 29.1914 8.7895 0
401 1 25.6995 9.99912 0
402 1 27.0962 9.99912 0
403 1 27.7946 11.2087 0
404 1 29.1914 11.2087 0
405 1 25.6995 12.4184 0
406 1 27.0962 12.4184 0
407 1 27.7946 13.628 0
408 1 29.1914 13.628 0
409 1 25.6995 14.8376 0
410 1 27.0962 14.8376 0
411 1 27.7946 16.0472 0
412 1 29.1914 16.0472 0
413 1 25.6995 17.2569 0
414 1 27.0962 17.2569 0
415 1 27.7946 18.4665 0
416 1 29.1914 18.4665 0
417 1 25.6995 19.6761 0
418 1 27.0962 19.6761 0
419 1 27.7946 20.8857 0
420 1 29.1914 20.8857 0
421 1 25.6995 22.0953 0
422 1 27.0962 22.0953 0
423 1 27.7946 23.305 0
424 1 29.1914 23.305 0
425 1 25.6995 24.5146 0
426 1 27.0962 24.5146 0
427 1 27.7946 25.7242 0
428 1 29.1914 25.7242 0
429 1 25.6995 26.9338 0
430 1 27.0962 26.9338 0
431 1 27.7946 28.1434 0
432 1 29.1914 28.1434 0
433 1 25.6995 29.3531 0
434 1 27.0962 29.3531 0
435 1 27.7946 30.5627 0
436 1 29.1914 30.5627 0
437 1 25.6995 31.7723 0
438 1 27.0962 31.7723 0
439 1 27.7946 32.9819 0
440 1 29.1914 32.9819 0
441 1 25.6995 34.1916 0
442 1 27.0962 34.1916 0
443 1 27.7946 35.4012 0
444 1 29.1914 35.4012 0
445 1 25.6995 36.6108 0
446 1 27.0962 36.6108 0
447 1 27.7946 37.8204 0
448 1 29.1914 37.8204 0
449 1 29.8897 39.03 0
450 1 31.2865 39.03 0
451 1 31.9849 1.53177 0
452 1 33.3816 1.53177 0
453 1 29.8897 2.74139 0
454 1 31.2865 2.74139 0
455 1 31.9849 3.95102 0
456 1 33.3816 3.95102 0
457 1 29.8897 5.16064 0
458 1 31.2865 5.16064 0
459 1 31.9849 6.37026 0
460 1 33.3816 6.37026 0
461 1 29.8897 7.57988 0
462 1 31.2865 7.57988 0
463 1 31.9849 8.7895 0
464 1 33.3816 8.7895 0
465 1 29.8897 9.99912 0
466 1 31.2865 9.99912 0
467 1 31.9849 11.2087 0
468 1 33.3816 11.2087 0
469 1 29.8897 12.4184 0
470 1 31.2865 12.4184 0
471 1 31.9849 13.628 0
472 1 33.3816 13.628 0
473 1 29.8897 14.8376 0
474 1 31.2865 14.8376 0
475 1 31.9849 16.0472 0
476 1 33.3816 16.0472 0
477 1 29.8897 17.2569 0
478 1 31.2865 17.2569 0
479 1 31.9849 18.4665 0
480 1 33.3816 18.4665 0
481 1 29.8897 19.6761 0
482 1 31.2865 19.6761 0
483 1 31.9849 20.8857 0
484 1 33.3816 20.8857 0
485 1 29.8897 22.0953 0
486 1 31.2865 22.0953 0
487 1 31.9849 23.305 0
488 1 33.3816 23.305 0
489 1 29.8897 24.5146 0
490 1 31.2865 24.5146 0
491 1 31.9849 25.7242 0
492 1 33.3816 25.7242 0
493 1 29.8897 26.9338 0
494 1 31.2865 26.9338 0
495 1 31.9849 28.1434 0
496 1 33.3816 28.1434 0
497 1 29.8897 29.3531 0
498 1 31.2865 29.3531 0
499 1 31.9849 30.5627 0
500 1 33.3816 30.5627 0
501 1 29.8897 31.7723 0
502 1 31.2865 31.7723 0
503 1 31.9849 32.9819 0
504 1 33.3816 32.9819 0
505 1 29.8897 34.1916 0
506 1 31.2865 34.1916 0
507 1 31.9849 35.4012 0
508 1 33.3816 35.4012 0
509 1 29.8897 36.6108 0
510 1 31.2865 36.6108 0
511 1 31.9849 37.8204 0
512 1 33.3816 37.8204 0
513 1 34.08 39.03 0
514 1 35.4768 39.03 0
515 1 36.1751 1.53177 0
516 1 37.5719 1.53177 0
517 1 34.08 2.74139 0
518 1 35.4768 2.74139 0
519 1 36.1751 3.95102 0
520 1 37.5719 3.95102 0
521 1 34.08 5.16064 0
522 1 35.4768 5.16064 0
523 1 36.1751 6.37026 0
524 1 37.5719 6.37026 0
525 1 34.08 7.57988 0
526 1 35.4768 7.57988 0
527 1 36.1751 8.7895 0
528 1 37.5719 8.7895 0
529 1 34.08 9.99912 0
530 1 35.4768 9.99912 0
531 1 36.1751 11.2087 0
532 1 37.5719 11.2087 0
533 1 34.08 12.4184 0
534 1 35.4768 12.4184 0
535 1 36.1751 13.628 0
536 1 37.5719 13.628 0
537 1 34.08 14.8376 0
538 1 35.4768 14.8376 0
539 1 36.1751 16.0472 0
540 1 37.5719 16.0472 0
541 1 34.08 17.2569 0
542 1 35.4768 17.2569 0
543 1 36.1751 18.4665 0
544 1 37.5719 18.4665 0
545 1 34.08 19.6761 0
546 1 35.4768 19.6761 0
547 1 36.1751 20.8857 0
548 1 37.5719 20.8857 0
549 1 34.08 22.0953 0
550 1 35.4768 22.0953 0
551 1 36.1751 23.305 0
552 1 37.5719 23.305 0
553 1 34.08 24.5146 0
554 1 35.4768 24.5146 0
555 1 36.1751 25.7242 0
556 1 37.5719 25.7242 0
557 1 34.08 26.9338 0
558 1 35.4768 26.9338 0
559 1 36.1751 28.1434 0
560 1 37.5719 28.1434 0
561 1 34.08 29.3531 0
562 1 35.4768 29.3531 0
563 1 36.1751 30.5627 0
564 1 37.5719 30.5627 0
565 1 34.08 31.7723 0
566 1 35.4768 31.7723 0
567 1 36.1751 32.9819 0
568 1 37.5719 32.9819 0
569 1 34.08 34.1916 0
570 1 35.4768 34.1916 0
571 1 36.1751 35.4012 0
572 1 37.5719 35.4012 0
573 1 34.08 36.6108 0
574 1 35.4768 36.6108 0
575 1 36.1751 37.8204 0
576 1 37.5719 37.8204 0
577 1 38.2703 39.03 0
578 1 39.667 39.03 0
579 1 40.3654 1.53177 0
580 1 41.7621 1.53177 0
581 1 38.2703 2.74139 0
582 1 39.667 2.74139 0
583 1 40.3654 3.95102 0
584 1 41.7621 3.95102 0
585 1 38.2703 5.16064 0
586 1 39.667 5.16064 0
587 1 40.3654 6.37026 0
588 1 41.7621 6.37026 0
589 1 38.2703 7.57988 0
590 1 39.667 7.57988 0
591 1 40.3654 8.7895 0
592 1 41.7621 8.7895 0
593 1 38.2703 9.99912 0
594 1 39.667 9.99912 0
595 1 40.3654 11.2087 0
596 1 41.7621 11.2087 0
597 1 38.2703 12.4184 0
598 1 39.667 12.4184 0
599 1 40.3654 13.628 0
600 1 41.7621 13.628 0
601 1 38.2703 14.8376 0
602 1 39.667 14.8376 0
603 1 40.3654 16.0472 0
604 1 41.7621 16.0472 0
605 1 38.2703 17.2569 0
606 1 39.667 17.2569 0
607 1 40.3654 18.4665 0
608 1 41.7621 18.4665 0
609 1 38.2703 19.6761 0
610 1 39.667 19.6761 0
611 1 40.3654 20.8857 0
612 1 41.7621 20.8857 0
613 1 38.2703 22.0953 0
614 1 39.667 22.0953 0
615 1 40.3654 23.305 0
616 1 41.7621 23.305 0
617 1 38.2703 24.5146 0
618 1 39.667 24.5146 0
619 1 40.3654 25.7242 0
620 1 41.7621 25.7242 0
621 1 38.2703 26.9338 0
622 1 39.667 26.9338 0
623 1 40.3654 28.1434 0
624 1 41.7621 28.1434 0
625 1 38.2703 29.3531 0
626 1 39.667 29.3531 0
627 1 40.3654 30.5627 0
628 1 41.7621 30.5627 0
629 1 38.2703 31.7723 0
630 1 39.667 31.7723 0
631 1 40.3654 32.9819 0
632 1 41.7621 32.9819 0
633 1 38.2703 34.1916 0
634 1 39.667 34.1916 0
635 1 40.3654 35.4012 0
636 1 41.7621 35.4012 0
637 1 38.2703 36.6108 0
638 1 39.667 36.6108 0
639 1 40.3654 37.8204 0
640 1 41.7621 37.8204 0
641 1 42.4605 39.03 0
642 1 43.8573 39.03 0
643 1 44.5556 1.53177 0
644 1 45.9524 1.53177 0
645 1 42.4605 2.74139 0
646 1 43.8573 2.74139 0
647 1 44.5556 3.95102 0
648 1 45.9524 3.95102 0
649 1 42.4605 5.16064 0
650 1 43.8573 5.16064 0
651 1 44.5556 6.37026 0
652 1 45.9524 6.37026 0
653 1 42.4605 7.57988 0
654 1 43.8573 7.57988 0
655 1 44.5556 8.7895 0
656 1 45.9524 8.7895 0
657 1 42.4605 9.99912 0
658 1 43.8573 9.99912 0
659 1 44.5556 11.2087 0
660 1 45.9524 11.2087 0
661 1 42.4605 12.4184 0
662 1 43.8573 12.4184 0
663 1 44.5556 13.628 0
664 1 45.9524 13.628 0
665 1 42.4605 14.8376 0
666 1 43.8573 14.8376 0
667 1 44.5556 16.0472 0
668 1 45.9524 16.0472 0
669 1 42.4605 17.2569 0
670 1 43.8573 17.2569 0
671 1 44.5556 18.4665 0
672 1 45.9524 18.4665 0
673 1 42.4605 19.6761 0
674 1 43.8573 19.6761 0
675 1 44.5556 20.8857 0
676 1 45.9524 20.8857 0
677 1 42.4605 22.0953 0
678 1 43.8573 22.0953 0
679 1 44.5556 23.305 0
680 1 45.9524 23.305 0
681 1 42.4605 24.5146 0
682 1 43.8573 24.5146 0
683 1 44.5556 25.7242 0
684 1 45.9524 25.7242 0
685 1 42.4605 26.9338 0
686 1 43.8573 26.9338 0
687 1 44.5556 28.1434 0
688 1 45.9524 28.1434 0
689 1 42.4605 29.3531 0
690 1 43.8573 29.3531 0
691 1 44.5556 30.5627 0
692 1 45.9524 30.5627 0
693 1 42.4605 31.7723 0
694 1 43.8573 31.7723 0
695 1 44.5556 32.9819 0
696 1 45.9524 32.9819 0
697 1 42.4605 34.1916 0
698 1 43.8573 34.1916 0
699 1 44.5556 35.4012 0
700 1 45.9524 35.4012 0
701 1 42.4605 36.6108 0
702 1 43.8573 36.6108 0
703 1 44.5556 37.8204 0
704 1 45.9524 37.8204 0
705 1 46.6508 39.03 0
706 1 48.0475 39.03 0
707 1 48.7459 1.53177 0
708 1 50.1426 1.53177 0
709 1 46.6508 2.74139 0
710 1 48.0475 2.74139 0
711 1 48.7459 3.95102 0
712 1 50.1426 3.95102 0
713 1 46.6508 5.16064 0
714 1 48.0475 5.16064 0
715 1 48.7459 6.37026 0
716 1 50.1426 6.37026 0
717 1 46.6508 7.57988 0
718 1 48.0475 7.57988 0
719 1 48.7459 8.7895 0
720 1 50.1426 8.7895 0
721 1 46.6508 9.99912 0
722 1 48.0475 9.99912 0
723 1 48.7459 11.2087 0
724 1 50.1426 11.2087 0
725 1 46.6508 12.4184 0
726 1 48.0475 12.4184 0
727 1 48.7459 13.628 0
728 1 50.1426 13.628 0
729 1 46.6508 14.8376 0
730 1 48.0475 14.8376 0
731 1 48.7459 16.0472 0
732 1 50.1426 16.0472 0
733 1 46.6508 17.2569 0
734 1 48.0475 17.2569 0
735 1 48.7459 18.4665 0
736 1 50.1426 18.4665 0
737 1 46.6508 19.6761 0
738 1 48.0475 19.6761 0
739 1 48.7459 20.8857 0
740 1 50.1426 20.8857 0
741 1 46.6508 22.0953 0
742 1 48.0475 22.0953 0
743 1 48.7459 23.305 0
744 1 50.1426 23.305 0
745 1 46.6508 24.5146 0
746 1 48.0475 24.5146 0
747 1 48.7459 25.7242 0
748 1 50.1426 25.7242 0
749 1 46.6508 26.9338 0
750 1 48.0475 26.9338 0
751 1 48.7459 28.1434 0
752 1 50.1426 28.1434 0
753 1 46.6508 29.3531 0
754 1 48.0475 29.3531 0
755 1 48.7459 30.5627 0
756 1 50.1426 30.5627 0
757 1 46.6508 31.7723 0
758 1 48.0475 31.7723 0
759 1 48.7459 32.9819 0
760 1 50.1426 32.9819 0
761 1 46.6508 34.1916 0
762 1 48.0475 34.1916 0
763 1 48.7459 35.4012 0
764 1 50.1426 35.4012 0
765 1 46.6508 36.6108 0
766 1 48.0475 36.6108 0
767 1 48.7459 37.8204 0
768 1 50.1426 37.8204 0
769 1 50.841 39.03 0
770 1 52.2378 39.03 0
771 1 52.9361 1.53177 0
772 1 54.3329 1.53177 0
773 1 50.841 2.74139 0
774 1 52.2378 2.74139 0
775 1 52.9361 3.95102 0
776 1 54.3329 3.95102 0
777 1 50.841 5.16064 0
778 1 52.2378 5.16064 0
779 1 52.9361 6.37026 0
780 1 54.3329 6.37026 0
781 1 50.841 7.57988 0
782 1 52.2378 7.57988 0
783 1 52.9361 8.7895 0
784 1 54.3329 8.7895 0
785 1 50.841 9.99912 0
786 1 52.2378 9.99912 0
787 1 52.9361 11.2087 0
788 1 54.3329 11.2087 0
789 1 50.841 12.4184 0
790 1 52.2378 12.4184 0
791 1 52.9361 13.628 0
792 1 54.3329 13.628 0
793 1 50.841 14.8376 0
794 1 52.2378 14.8376 0
795 1 52.9361 16.0472 0
796 1 54.3329 16.0472 0
797 1 50.841 17.2569 0
798 1 52.2378 17.2569 0
799 1 52.9361 18.4665 0
800 1 54.3329 18.4665 0
801 1 50.841 19.6761 0
802 1 52.2378 19.6761 0
803 1 52.9361 20.8857 0
804 1 54.3329 20.8857 0
805 1 50.841 22.0953 0
806 1 52.2378 22.0953 0
807 1 52.9361 23.305 0
808 1 54.3329 23.305 0
809 1 50.841 24.5146 0
810 1 52.2378 24.5146 0
811 1 52.9361 25.7242 0
812 1 54.3329 25.7242 0
813 1 50.841 26.9338 0
814 1 52.2378 26.9338 0
815 1 52.9361 28.1434 0
816 1 54.3329 28.1434 0
817 1 50.841 29.3531 0
818 1 52.2378 29.3531 0
819 1 52.9361 30.5627 0
820 1 54.3329 30.5627 0
821 1 50.841 31.7723 0
822 1 52.2378 31.7723 0
823 1 52.9361 32.9819 0
824 1 54.3329 32.9819 0
825 1 50.841 34.1916 0
826 1 52.2378 34.1916 0
827 1 52.9361 35.4012 0
828 1 54.3329 35.4012 0
829 1 50.841 36.6108 0
830 1 52.2378 36.6108 0
831 1 52.9361 37.8204 0
832 1 54.3329 37.8204 0
833 1 55.0313 39.03 0
834 1 56.428 39.03 0
835 1 57.1264 1.53177 0
836 1 58.5231 1.53177 0
837 1 55.0313 2.74139 0
838 1 56.428 2.74139 0
839 1 57.1264 3.95102 0
840 1 58.5231 3.95102 0
841 1 55.0313 5.16064 0
842 1 56.428 5.16064 0
843 1 57.1264 6.37026 0
844 1 58.5231 6.37026 0
845 1 55.0313 7.57988 0
846 1 56.428 7.57988 0
847 1 57.1264 8.7895 0
848 1 58.5231 8.7895 0
849 1 55.0313 9.99912 0
850 1 56.428 9.99912 0
851 1 57.1264 11.2087 0
852 1 58.5231 11.2087 0
853 1 55.0313 12.4184 0
854 1 56.428 12.4184 0
855 1 57.1264 13.628 0
856 1 58.5231 13.628 0
857 1 55.0313 14.8376 0
858 1 56.428 14.8376 0
859 1 57.1264 16.0472 0
860 1 58.5231 16.0472 0
861 1 55.0313 17.2569 0
862 1 56.428 17.2569 0
863 1 57.1264 18.4665 0
864 1 58.5231 18.4665 0
865 1 55.0313 19.6761 0
866 1 56.428 19.6761 0
867 1 57.1264 20.8857 0
868 1 58.5231 20.8857 0
869 1 55.0313 22.0953 0
870 1 56.428 22.0953 0
871 1 57.1264 23.305 0
872 1 58.5231 23.305 0
873 1 55.0313 24.5146 0
874 1 56.428 24.5146 0
875 1 57.1264 25.7242 0
876 1 58.5231 25.7242 0
877 1 55.0313 26.9338 0
878 1 56.428 26.9338 0
879 1 57.1264 28.1434 0
880 1 58.5231 28.1434 0
881 1 55.0313 29.3531 0
882 1 56.428 29.3531 0
883 1 57.1264 30.5627 0
884 1 58.5231 30.5627 0
885 1 55.0313 31.7723 0
886 1 56.428 31.7723 0
887 1 57.1264 32.9819 0
888 1 58.5231 32.9819 0
889 1 55.0313 34.1916 0
890 1 56.428 34.1916 0
891 1 57.1264 35.4012 0
892 1 58.5231 35.4012 0
893 1 55.0313 36.6108 0
894 1 56.428 36.6108 0
895 1 57.1264 37.8204 0
896 1 58.5231 37.8204 0
897 1 59.2215 39.03 0
898 1 60.6183 39.03 0
899 1 61.3166 1.53177 0
900 1 62.7134 1.53177 0
901 1 59.2215 2.74139 0
902 1 60.6183 2.74139 0
903 1 61.3166 3.95102 0
904 1 62.7134 3.95102 0
905 1 59.2215 5.16064 0
906 1 60.6183 5.16064 0
907 1 61.3166 6.37026 0
908 1 62.7134 6.37026 0
909 1 59.2215 7.57988 0
910 1 60.6183 7.57988 0
911 1 61.3166 8.7895 0
912 1 62.7134 8.7895 0
913 1 59.2215 9.99912 0
914 1 60.6183 9.99912 0
915 1 61.3166 11.2087 0
916 1 62.7134 11.2087 0
917 1 59.2215 12.4184 0
918 1 60.6183 12.4184 0
919 1 61.3166 13.628 0
920 1 62.7134 13.628 0
921 1 59.2215 14.8376 0
922 1 60.6183 14.8376 0
923 1 61.3166 16.0472 0
924 1 62.7134 16.0472 0
925 1 59.2215 17.2569 0
926 1 60.6183 17.2569 0
927 1 61.3166 18.4665 0
928 1 62.7134 18.4665 0
929 1 59.2215 19.6761 0
930 1 60.6183 19.6761 0
931 1 61.3166 20.8857 0
932 1 62.7134 20.8857 0
933 1 59.2215 22.0953 0
934 1 60.6183 22.0953 0
935 1 61.3166 23.305 0
936 1 62.7134 23.305 0
937 1 59.2215 24.5146 0
938 1 60.6183 24.5146 0
939 1 61.3166 25.7242 0
940 1 62.7134 25.7242 0
941 1 59.2215 26.9338 0
942 1 60.6183 26.9338 0
943 1 61.3166 28.1434 0
944 1 62.7134 28.1434 0
945 1 59.2215 29.3531 0
946 1 60.6183 29.3531 0
947 1 61.3166 30.5627 0
948 1 62.7134 30.5627 0
949 1 59.2215 31.7723 0
950 1 60.6183 31.7723 0
951 1 61.3166 32.9819 0
952 1 62.7134 32.9819 0
953 1 59.2215 34.1916 0
954 1 60.6183 34.1916 0
955 1 61.3166 35.4012 0
956 1 62.7134 35.4012 0
957 1 59.2215 36.6108 0
958 1 60.6183 36.6108 0
959 1 61.3166 37.8204 0
960 1 62.7134 37.8204 0
961 1 63.4118 39.03 0
962 1 64.8085 39.03 0
963 1 65.5069 1.53177 0
964 1 66.9036 1.53177 0
965 1 63.4118 2.74139 0
966 1 64.8085 2.74139 0
967 1 65.5069 3.95102 0
968 1 66.9036 3.95102 0
969 1 63.4118 5.16064 0
970 1 64.8085 5.16064 0
971 1 65.5069 6.37026 0
972 1 66.9036 6.37026 0
973 1 63.4118 7.57988 0
974 1 64.8085 7.57988 0
975 1 65.5069 8.7895 0
976 1 66.9036 8.7895 0
977 1 63.4118 9.99912 0
978 1 64.8085 9.99912 0
979 1 65.5069 11.2087 0
980 1 66.9036 11.2087 0
981 1 63.4118 12.4184 0
982 1 64.8085 12.4184 0
983 1 65.5069 13.628 0
984 1 66.9036 13.628 0
985 1 63.4118 14.8376 0
986 1 64.8085 14.8376 0
987 1 65.5069 16.0472 0
988 1 66.9036 16.0472 0
989 1 63.4118 17.2569 0
990 1 64.8085 17.2569 0
991 1 65.5069 18.4665 0
992 1 66.9036 18.4665 0
993 1 63.4118 19.6761 0
994 1 64.8085 19.6761 0
995 1 65.5069 20.8857 0
996 1 66.9036 20.8857 0
997 1 63.4118 22.0953 0
998 1 64.8085 22.0953 0
999 1 65.5069 23.305 0
1000 1 66.9036 23.305 0
1001 1 63.4118 24.5146 0
1002 1 64.8085 24.5146 0
1003 1 65.5069 25.7242 0
1004 1 66.9036 25.7242 0
1005 1 63.4118 26.9338 0
1006 1 64.8085 26.9338 0
1007 1 65.5069 28.1434 0
1008 1 66.9036 28.1434 0
1009 1 63.4118 29.3531 0
1010 1 64.8085 29.3531 0
1011 1 65.5069 30.5627 0
1012 1 66.9036 30.5627 0
1013 1 63.4118 31.7723 0
1014 1 64.8085 31.7723 0
1015 1 65.5069 32.9819 0
1016 1 66.9036 32.9819 0
1017 1 63.4118 34.1916 0
1018 1 64.8085 34.1916 0
1019 1 65.5069 35.4012 0
1020 1 66.9036 35.4012 0
1021 1 63.4118 36.6108 0
1022 1 64.8085 36.6108 0
1023 1 65.5069 37.8204 0
1024 1 66.9036 37.8204 0
