ITEM: TIMESTEP
74
ITEM: NUMBER OF ATOMS
1023
ITEM: BOX BOUNDS pp pp ff
5.5191577865378860e-01 6.7608084221346175e+01
3.1812795911785702e-01 3.9034066040882131e+01
-2.0000000000000000e+01 2.0000000000000000e+01
ITEM: ATOMS id type x y z
1 1 67.6081 0.318128 0
2 1 1.94864 0.318128 0
3 1 2.64678 1.52795 0
4 1 4.04352 1.52793 0
5 1 67.6081 2.73778 0
6 1 1.94863 2.73776 0
7 1 2.64674 3.9476 0
8 1 4.04348 3.94755 0
9 1 67.608 5.15746 0
10 1 1.94859 5.15742 0
11 1 2.64667 6.36727 0
12 1 4.04341 6.3672 0
13 1 67.608 7.57716 0
14 1 1.94853 7.57711 0
15 1 2.64658 8.78698 0
16 1 4.04332 8.7869 0
17 1 67.6079 9.99689 0
18 1 1.94846 9.99684 0
19 1 2.64649 11.2067 0
20 1 4.04322 11.2066 0
21 1 67.6078 12.4167 0
22 1 1.9484 12.4166 0
23 1 2.6464 13.6265 0
24 1 4.04314 13.6264 0
25 1 67.6078 14.8365 0
26 1 1.94834 14.8364 0
27 1 2.64634 16.0463 0
28 1 4.04307 16.0463 0
29 1 67.6077 17.2563 0
30 1 1.9483 17.2562 0
31 1 2.6463 18.4662 0
32 1 4.04304 18.4662 0
33 1 67.6077 19.6761 0
34 1 1.94829 19.6761 0
35 1 2.6463 20.886 0
36 1 4.04304 20.886 0
37 1 67.6077 22.0959 0
38 1 1.9483 22.0959 0
39 1 2.64634 23.3059 0
40 1 4.04307 23.3059 0
41 1 67.6078 24.5157 0
42 1 1.94834 24.5158 0
43 1 2.6464 25.7257 0
44 1 4.04314 25.7257 0
45 1 67.6078 26.9355 0
46 1 1.9484 26.9356 0
47 1 2.64649 28.1455 0
48 1 4.04322 28.1455 0
49 1 67.6079 29.3553 0
50 1 1.94846 29.3554 0
51 1 2.64658 30.5652 0
52 1 4.04332 30.5653 0
53 1 67.608 31.775 0
54 1 1.94853 31.7751 0
55 1 2.64667 32.9849 0
56 1 4.04341 32.985 0
57 1 67.608 34.1947 0
58 1 1.94859 34.1948 0
59 1 2.64674 35.4046 0
60 1 4.04348 35.4046 0
61 1 67.6081 36.6144 0
62 1 1.94863 36.6144 0
63 1 2.64678 37.8242 0
64 1 4.04352 37.8243 0
65 1 4.74169 0.318128 0
66 1 6.13843 0.318128 0
67 1 6.83662 1.52792 0
68 1 8.23337 1.52789 0
69 1 4.74166 2.73775 0
70 1 6.1384 2.7377 0
71 1 6.83654 3.94751 0
72 1 8.23329 3.94742 0
73 1 4.74158 5.15738 0
74 1 6.13832 5.1573 0
75 1 6.8364 6.36714 0
76 1 8.23315 6.36701 0
77 1 4.74147 7.57706 0
78 1 6.13821 7.57695 0
79 1 6.83623 8.78683 0
80 1 8.23297 8.78666 0
81 1 4.74134 9.99679 0
82 1 6.13807 9.99667 0
83 1 6.83605 11.2066 0
84 1 8.23278 11.2064 0
85 1 4.74121 12.4166 0
86 1 6.13794 12.4164 0
87 1 6.83588 13.6264 0
88 1 8.23261 13.6262 0
89 1 4.74111 14.8364 0
90 1 6.13784 14.8363 0
91 1 6.83576 16.0462 0
92 1 8.23248 16.0462 0
93 1 4.74104 17.2562 0
94 1 6.13776 17.2562 0
95 1 6.83569 18.4661 0
96 1 8.23241 18.4661 0
97 1 4.74101 19.6761 0
98 1 6.13774 19.6761 0
99 1 6.83569 20.8861 0
100 1 8.23241 20.8861 0
101 1 4.74104 22.096 0
102 1 6.13776 22.096 0
103 1 6.83576 23.3059 0
104 1 8.23248 23.306 0
105 1 4.74111 24.5158 0
106 1 6.13784 24.5159 0
107 1 6.83588 25.7258 0
108 1 8.23261 25.7259 0
109 1 4.74121 26.9356 0
110 1 6.13794 26.9357 0
111 1 6.83605 28.1456 0
112 1 8.23278 28.1458 0
113 1 4.74134 29.3554 0
114 1 6.13807 29.3555 0
115 1 6.83623 30.5654 0
116 1 8.23297 30.5655 0
117 1 4.74147 31.7751 0
118 1 6.13821 31.7752 0
119 1 6.8364 32.985 0
120 1 8.23315 32.9852 0
121 1 4.74158 34.1948 0
122 1 6.13832 34.1949 0
123 1 6.83654 35.4047 0
124 1 8.23329 35.4048 0
125 1 4.74166 36.6144 0
126 1 6.1384 36.6145 0
127 1 6.83662 37.8243 0
128 1 8.23337 37.8243 0
129 1 8.93161 0.318128 0
130 1 10.3284 0.318128 0
131 1 11.0266 1.52787 0
132 1 12.4234 1.52782 0
133 1 8.93156 2.73767 0
134 1 10.3283 2.73759 0
135 1 11.0265 3.94736 0
136 1 12.4233 3.94722 0
137 1 8.93141 5.15724 0
138 1 10.3282 5.15709 0
139 1 11.0263 6.36691 0
140 1 12.423 6.36668 0
141 1 8.93119 7.57686 0
142 1 10.3279 7.57666 0
143 1 11.0259 8.78654 0
144 1 12.4227 8.78626 0
145 1 8.93093 9.99657 0
146 1 10.3277 9.99633 0
147 1 11.0256 11.2063 0
148 1 12.4223 11.206 0
149 1 8.93068 12.4164 0
150 1 10.3274 12.4161 0
151 1 11.0253 13.6261 0
152 1 12.422 13.6259 0
153 1 8.93048 14.8362 0
154 1 10.3272 14.836 0
155 1 11.025 16.0461 0
156 1 12.4218 16.0459 0
157 1 8.93035 17.2561 0
158 1 10.3271 17.256 0
159 1 11.0249 18.4661 0
160 1 12.4216 18.466 0
161 1 8.9303 19.6761 0
162 1 10.327 19.6761 0
163 1 11.0249 20.8861 0
164 1 12.4216 20.8862 0
165 1 8.93035 22.0961 0
166 1 10.3271 22.0961 0
167 1 11.025 23.3061 0
168 1 12.4218 23.3063 0
169 1 8.93048 24.516 0
170 1 10.3272 24.5161 0
171 1 11.0253 25.7261 0
172 1 12.422 25.7263 0
173 1 8.93068 26.9358 0
174 1 10.3274 26.9361 0
175 1 11.0256 28.1459 0
176 1 12.4223 28.1462 0
177 1 8.93093 29.3556 0
178 1 10.3277 29.3559 0
179 1 11.0259 30.5657 0
180 1 12.4227 30.5659 0
181 1 8.93119 31.7753 0
182 1 10.3279 31.7755 0
183 1 11.0263 32.9853 0
184 1 12.423 32.9855 0
185 1 8.93141 34.195 0
186 1 10.3282 34.1951 0
187 1 11.0265 35.4048 0
188 1 12.4233 35.405 0
189 1 8.93156 36.6145 0
190 1 10.3283 36.6146 0
191 1 11.0266 37.8243 0
192 1 12.4234 37.8244 0
193 1 13.1218 0.318128 0
194 1 14.5186 0.318128 0
195 1 15.2169 1.52779 0
196 1 16.6137 1.52772 0
197 1 13.1217 2.73754 0
198 1 14.5185 2.73742 0
199 1 15.2167 3.94714 0
200 1 16.6136 3.94696 0
201 1 13.1214 5.157 0
202 1 14.5182 5.15678 0
203 1 15.2164 6.36657 0
204 1 16.6132 6.36632 0
205 1 13.1211 7.57653 0
206 1 14.5179 7.57623 0
207 1 15.2159 8.78611 0
208 1 16.6128 8.78577 0
209 1 13.1206 9.99618 0
210 1 14.5174 9.99584 0
211 1 15.2154 11.2058 0
212 1 16.6122 11.2054 0
213 1 13.1202 12.416 0
214 1 14.517 12.4156 0
215 1 15.2148 13.6257 0
216 1 16.6116 13.6253 0
217 1 13.1198 14.8359 0
218 1 14.5166 14.8356 0
219 1 15.2144 16.0458 0
220 1 16.6112 16.0455 0
221 1 13.1196 17.256 0
222 1 14.5164 17.2558 0
223 1 15.2142 18.466 0
224 1 16.611 18.4659 0
225 1 13.1195 19.6761 0
226 1 14.5163 19.6761 0
227 1 15.2142 20.8862 0
228 1 16.611 20.8863 0
229 1 13.1196 22.0962 0
230 1 14.5164 22.0964 0
231 1 15.2144 23.3064 0
232 1 16.6112 23.3067 0
233 1 13.1198 24.5163 0
234 1 14.5166 24.5166 0
235 1 15.2148 25.7265 0
236 1 16.6116 25.7269 0
237 1 13.1202 26.9362 0
238 1 14.517 26.9366 0
239 1 15.2154 28.1464 0
240 1 16.6122 28.1468 0
241 1 13.1206 29.356 0
242 1 14.5174 29.3564 0
243 1 15.2159 30.5661 0
244 1 16.6128 30.5664 0
245 1 13.1211 31.7757 0
246 1 14.5179 31.776 0
247 1 15.2164 32.9856 0
248 1 16.6132 32.9859 0
249 1 13.1214 34.1952 0
250 1 14.5182 34.1954 0
251 1 15.2167 35.4051 0
252 1 16.6136 35.4052 0
253 1 13.1217 36.6147 0
254 1 14.5185 36.6148 0
255 1 15.2169 37.8244 0
256 1 16.6137 37.8245 0
257 1 17.3123 0.318128 0
258 1 18.7091 0.318128 0
259 1 19.4077 1.52771 0
260 1 20.8046 1.52766 0
261 1 17.3122 2.73737 0
262 1 18.709 2.73726 0
263 1 19.4075 3.94693 0
264 1 20.8044 3.94684 0
265 1 17.3119 5.1567 0
266 1 18.7088 5.15652 0
267 1 19.4072 6.36626 0
268 1 20.8042 6.36609 0
269 1 17.3115 7.57613 0
270 1 18.7084 7.57585 0
271 1 19.4067 8.78571 0
272 1 20.8037 8.78538 0
273 1 17.3109 9.99569 0
274 1 18.7077 9.99529 0
275 1 19.4058 11.2053 0
276 1 20.8027 11.2047 0
277 1 17.3101 12.4155 0
278 1 18.707 12.4149 0
279 1 19.4047 13.625 0
280 1 20.8015 13.6243 0
281 1 17.3094 14.8354 0
282 1 18.7063 14.8349 0
283 1 19.4038 16.0452 0
284 1 20.8006 16.0446 0
285 1 17.3089 17.2557 0
286 1 18.7057 17.2553 0
287 1 19.4032 18.4658 0
288 1 20.7999 18.4656 0
289 1 17.3087 19.6761 0
290 1 18.7055 19.6761 0
291 1 19.4032 20.8864 0
292 1 20.7999 20.8866 0
293 1 17.3089 22.0965 0
294 1 18.7057 22.0969 0
295 1 19.4038 23.307 0
296 1 20.8006 23.3076 0
297 1 17.3094 24.5167 0
298 1 18.7063 24.5173 0
299 1 19.4047 25.7272 0
300 1 20.8015 25.7279 0
301 1 17.3101 26.9367 0
302 1 18.707 26.9373 0
303 1 19.4058 28.1469 0
304 1 20.8027 28.1475 0
305 1 17.3109 29.3565 0
306 1 18.7077 29.3569 0
307 1 19.4067 30.5665 0
308 1 20.8037 30.5668 0
309 1 17.3115 31.7761 0
310 1 18.7084 31.7763 0
311 1 19.4072 32.9859 0
312 1 20.8042 32.9861 0
313 1 17.3119 34.1955 0
314 1 18.7088 34.1957 0
315 1 19.4075 35.4053 0
316 1 20.8044 35.4054 0
317 1 17.3122 36.6148 0
318 1 18.709 36.6149 0
319 1 19.4077 37.8245 0
320 1 20.8046 37.8245 0
321 1 21.5033 0.318128 0
322 1 22.9002 0.318128 0
323 1 23.599 1.52768 0
324 1 24.996 1.52772 0
325 1 21.5032 2.73726 0
326 1 22.9002 2.73726 0
327 1 23.599 3.94688 0
328 1 24.996 3.94682 0
329 1 21.503 5.15653 0
330 1 22.9 5.15643 0
331 1 23.5987 6.36607 0
332 1 24.9958 6.36586 0
333 1 21.5027 7.57584 0
334 1 22.8997 7.5756 0
335 1 23.5983 8.78534 0
336 1 24.9954 8.78511 0
337 1 21.5019 9.9952 0
338 1 22.899 9.99472 0
339 1 23.5973 11.2046 0
340 1 24.9945 11.2042 0
341 1 21.5006 12.4147 0
342 1 22.8975 12.4138 0
343 1 23.5949 13.6241 0
344 1 24.9918 13.6228 0
345 1 21.4989 14.8346 0
346 1 22.8957 14.8336 0
347 1 23.5923 16.0442 0
348 1 24.989 16.0427 0
349 1 21.4976 17.2552 0
350 1 22.8943 17.2544 0
351 1 23.5906 18.4653 0
352 1 24.9872 18.4646 0
353 1 21.4971 19.6761 0
354 1 22.8938 19.6761 0
355 1 23.5906 20.8869 0
356 1 24.9872 20.8875 0
357 1 21.4976 22.097 0
358 1 22.8943 22.0978 0
359 1 23.5923 23.308 0
360 1 24.989 23.3095 0
361 1 21.4989 24.5176 0
362 1 22.8957 24.5186 0
363 1 23.5949 25.7281 0
364 1 24.9918 25.7294 0
365 1 21.5006 26.9375 0
366 1 22.8975 26.9384 0
367 1 23.5973 28.1476 0
368 1 24.9945 28.148 0
369 1 21.5019 29.357 0
370 1 22.899 29.3575 0
371 1 23.5983 30.5669 0
372 1 24.9954 30.5671 0
373 1 21.5027 31.7764 0
374 1 22.8997 31.7766 0
375 1 23.5987 32.9861 0
376 1 24.9958 32.9863 0
377 1 21.503 34.1957 0
378 1 22.9 34.1958 0
379 1 23.599 35.4053 0
380 1 24.996 35.4054 0
381 1 21.5032 36.6149 0
382 1 22.9002 36.6149 0
383 1 23.599 37.8245 0
384 1 24.996 37.8245 0
385 1 25.6949 0.318128 0
386 1 27.092 0.318128 0
387 1 27.791 1.5277 0
388 1 29.1881 1.52762 0
389 1 25.6949 2.73729 0
390 1 27.092 2.73723 0
391 1 27.7909 3.94674 0
392 1 29.188 3.94658 0
393 1 25.6948 5.15638 0
394 1 27.0918 5.1562 0
395 1 27.7907 6.36582 0
396 1 29.1879 6.36557 0
397 1 25.6945 7.57554 0
398 1 27.0917 7.57548 0
399 1 27.7905 8.78517 0
400 1 29.1877 8.78471 0
401 1 25.6941 9.99487 0
402 1 27.0913 9.99462 0
403 1 27.79 11.2044 0
404 1 29.1873 11.204 0
405 1 25.6927 12.4141 0
406 1 27.0899 12.4135 0
407 1 27.7881 13.6236 0
408 1 29.1859 13.623 0
409 1 25.6883 14.8332 0
410 1 27.085 14.8311 0
411 1 27.7798 16.0421 0
412 1 29.1761 16.0389 0
413 1 25.6843 17.2539 0
414 1 27.0806 17.252 0
415 1 27.7735 18.4643 0
416 1 29.1691 18.4627 0
417 1 25.6824 19.6761 0
418 1 27.0786 19.6761 0
419 1 27.7735 20.8879 0
420 1 29.1691 20.8895 0
421 1 25.6843 22.0983 0
422 1 27.0806 22.1002 0
423 1 27.7798 23.3101 0
424 1 29.1761 23.3133 0
425 1 25.6883 24.519 0
426 1 27.085 24.5211 0
427 1 27.7881 25.7286 0
428 1 29.1859 25.7292 0
429 1 25.6927 26.9381 0
430 1 27.0899 26.9387 0
431 1 27.79 28.1478 0
432 1 29.1873 28.1482 0
433 1 25.6941 29.3573 0
434 1 27.0913 29.3576 0
435 1 27.7905 30.567 0
436 1 29.1877 30.5675 0
437 1 25.6945 31.7766 0
438 1 27.0917 31.7767 0
439 1 27.7907 32.9864 0
440 1 29.1879 32.9866 0
441 1 25.6948 34.1958 0
442 1 27.0918 34.196 0
443 1 27.7909 35.4055 0
444 1 29.188 35.4056 0
445 1 25.6949 36.6149 0
446 1 27.092 36.615 0
447 1 27.791 37.8245 0
448 1 29.1881 37.8246 0
449 1 29.8872 0.318128 0
450 1 31.2844 0.318128 0
451 1 31.9836 1.52751 0
452 1 33.3808 1.52734 0
453 1 29.8872 2.73712 0
454 1 31.2843 2.73687 0
455 1 31.9835 3.94617 0
456 1 33.3807 3.94566 0
457 1 29.887 5.15608 0
458 1 31.2841 5.15546 0
459 1 31.9834 6.36482 0
460 1 33.3805 6.36365 0
461 1 29.8868 7.57514 0
462 1 31.284 7.57423 0
463 1 31.9833 8.78351 0
464 1 33.3805 8.78116 0
465 1 29.8866 9.99434 0
466 1 31.2838 9.99298 0
467 1 31.9832 11.2024 0
468 1 33.3805 11.1974 0
469 1 29.8861 12.4138 0
470 1 31.2835 12.4123 0
471 1 31.9835 13.6221 0
472 1 33.3812 13.6118 0
473 1 29.8841 14.8338 0
474 1 31.2832 14.8332 0
475 1 31.9839 16.0464 0
476 1 33.3887 16.0214 0
477 1 29.8655 17.2515 0
478 1 31.2596 17.2503 0
479 1 31.9422 18.4716 0
480 1 33.3357 18.3878 0
481 1 29.8602 19.6761 0
482 1 31.2549 19.6761 0
483 1 31.9423 20.8807 0
484 1 33.3356 20.9643 0
485 1 29.8655 22.1007 0
486 1 31.2596 22.1019 0
487 1 31.9839 23.3058 0
488 1 33.3887 23.3308 0
489 1 29.8841 24.5184 0
490 1 31.2832 24.519 0
491 1 31.9835 25.7301 0
492 1 33.3812 25.7404 0
493 1 29.8861 26.9384 0
494 1 31.2835 26.9399 0
495 1 31.9832 28.1498 0
496 1 33.3805 28.1548 0
497 1 29.8866 29.3579 0
498 1 31.2838 29.3592 0
499 1 31.9833 30.5687 0
500 1 33.3805 30.571 0
501 1 29.8868 31.7771 0
502 1 31.284 31.778 0
503 1 31.9834 32.9874 0
504 1 33.3805 32.9885 0
505 1 29.887 34.1961 0
506 1 31.2841 34.1967 0
507 1 31.9835 35.406 0
508 1 33.3807 35.4065 0
509 1 29.8872 36.6151 0
510 1 31.2843 36.6153 0
511 1 31.9836 37.8247 0
512 1 33.3808 37.8249 0
513 1 34.0802 0.318128 0
514 1 35.4773 0.318128 0
515 1 36.1769 1.52725 0
516 1 37.574 1.52723 0
517 1 34.0802 2.73651 0
518 1 35.4773 2.73632 0
519 1 36.177 3.94525 0
520 1 37.5741 3.94536 0
521 1 34.0802 5.1547 0
522 1 35.4773 5.15421 0
523 1 36.1773 6.36298 0
524 1 37.5745 6.36322 0
525 1 34.0804 7.57238 0
526 1 35.4776 7.57178 0
527 1 36.1782 8.78002 0
528 1 37.5753 8.78074 0
529 1 34.081 9.98924 0
530 1 35.4782 9.98853 0
531 1 36.1799 11.196 0
532 1 37.577 11.1978 0
533 1 34.0823 12.4043 0
534 1 35.4798 12.4041 0
535 1 36.1836 13.61 0
536 1 37.5805 13.6143 0
537 1 34.087 14.8149 0
538 1 35.4842 14.8177 0
539 1 36.1898 16.0227 0
540 1 37.5862 16.031 0
541 1 34.1052 17.2233 0
542 1 35.4922 17.2305 0
543 1 36.1924 18.4276 0
544 1 37.5914 18.4472 0
545 1 35.5683 19.6762 0
546 1 36.1924 20.9245 0
547 1 37.5915 20.9051 0
548 1 34.1053 22.129 0
549 1 35.4921 22.1217 0
550 1 36.1898 23.3295 0
551 1 37.5862 23.3212 0
552 1 34.087 24.5373 0
553 1 35.4842 24.5345 0
554 1 36.1836 25.7422 0
555 1 37.5805 25.7379 0
556 1 34.0823 26.9478 0
557 1 35.4798 26.9481 0
558 1 36.1799 28.1562 0
559 1 37.577 28.1544 0
560 1 34.081 29.363 0
561 1 35.4782 29.3637 0
562 1 36.1782 30.5722 0
563 1 37.5753 30.5715 0
564 1 34.0804 31.7798 0
565 1 35.4776 31.7804 0
566 1 36.1773 32.9892 0
567 1 37.5745 32.989 0
568 1 34.0802 34.1975 0
569 1 35.4773 34.198 0
570 1 36.177 35.4069 0
571 1 37.5741 35.4068 0
572 1 34.0802 36.6157 0
573 1 35.4773 36.6159 0
574 1 36.1769 37.8249 0
575 1 37.574 37.825 0
576 1 38.2735 0.318128 0
577 1 39.6706 0.318128 0
578 1 40.37 1.52729 0
579 1 41.767 1.52743 0
580 1 38.2736 2.73628 0
581 1 39.6707 2.73645 0
582 1 40.3703 3.94546 0
583 1 41.7672 3.94591 0
584 1 38.2739 5.15425 0
585 1 39.671 5.15462 0
586 1 40.3708 6.36358 0
587 1 41.7679 6.36438 0
588 1 38.2747 7.57182 0
589 1 39.6718 7.57282 0
590 1 40.3719 8.78163 0
591 1 41.7688 8.78305 0
592 1 38.2762 9.98893 0
593 1 39.6732 9.99093 0
594 1 40.3737 11.1995 0
595 1 41.7705 11.202 0
596 1 38.2789 12.4054 0
597 1 39.6757 12.4091 0
598 1 40.376 13.618 0
599 1 41.7726 13.6215 0
600 1 38.2829 14.8217 0
601 1 39.6793 14.828 0
602 1 40.378 16.0382 0
603 1 41.7742 16.0421 0
604 1 38.2876 17.2393 0
605 1 39.6824 17.2489 0
606 1 40.3725 18.4643 0
607 1 41.7702 18.4653 0
608 1 38.2723 19.6761 0
609 1 39.6734 19.6761 0
610 1 40.3725 20.8879 0
611 1 41.7702 20.8869 0
612 1 38.2876 22.1128 0
613 1 39.6824 22.1033 0
614 1 40.378 23.314 0
615 1 41.7742 23.3101 0
616 1 38.2829 24.5305 0
617 1 39.6793 24.5242 0
618 1 40.376 25.7342 0
619 1 41.7726 25.7307 0
620 1 38.2789 26.9468 0
621 1 39.6757 26.9431 0
622 1 40.3737 28.1527 0
623 1 41.7705 28.1502 0
624 1 38.2762 29.3633 0
625 1 39.6732 29.3613 0
626 1 40.3719 30.5706 0
627 1 41.7688 30.5691 0
628 1 38.2747 31.7804 0
629 1 39.6718 31.7794 0
630 1 40.3708 32.9886 0
631 1 41.7679 32.9878 0
632 1 38.2739 34.1979 0
633 1 39.671 34.1976 0
634 1 40.3703 35.4067 0
635 1 41.7672 35.4063 0
636 1 38.2736 36.6159 0
637 1 39.6707 36.6157 0
638 1 40.37 37.8249 0
639 1 41.767 37.8248 0
640 1 42.4662 0.318128 0
641 1 43.8632 0.318128 0
642 1 44.5622 1.52747 0
643 1 45.9592 1.52754 0
644 1 42.4663 2.73666 0
645 1 43.8633 2.73686 0
646 1 44.5624 3.94619 0
647 1 45.9593 3.94649 0
648 1 42.4667 5.15501 0
649 1 43.8637 5.15563 0
650 1 44.5629 6.36491 0
651 1 45.9598 6.36558 0
652 1 42.4674 7.57354 0
653 1 43.8644 7.57455 0
654 1 44.5635 8.78402 0
655 1 45.9604 8.78494 0
656 1 42.4685 9.99221 0
657 1 43.8654 9.99379 0
658 1 44.5643 11.2034 0
659 1 45.9612 11.2046 0
660 1 42.4699 12.4114 0
661 1 43.8666 12.4134 0
662 1 44.5648 13.6236 0
663 1 45.9616 13.6248 0
664 1 42.4708 14.8317 0
665 1 43.8673 14.8339 0
666 1 44.5639 16.0449 0
667 1 45.9609 16.0455 0
668 1 42.4686 17.2546 0
669 1 43.8657 17.2552 0
670 1 44.5632 18.4659 0
671 1 45.9602 18.4659 0
672 1 42.4677 19.6761 0
673 1 43.8649 19.6761 0
674 1 44.5632 20.8863 0
675 1 45.9602 20.8862 0
676 1 42.4686 22.0976 0
677 1 43.8657 22.097 0
678 1 44.5639 23.3073 0
679 1 45.9609 23.3067 0
680 1 42.4708 24.5205 0
681 1 43.8673 24.5183 0
682 1 44.5648 25.7286 0
683 1 45.9616 25.7274 0
684 1 42.4699 26.9408 0
685 1 43.8666 26.9388 0
686 1 44.5643 28.1488 0
687 1 45.9612 28.1476 0
688 1 42.4685 29.36 0
689 1 43.8654 29.3584 0
690 1 44.5635 30.5682 0
691 1 45.9604 30.5673 0
692 1 42.4674 31.7787 0
693 1 43.8644 31.7776 0
694 1 44.5629 32.9873 0
695 1 45.9598 32.9866 0
696 1 42.4667 34.1972 0
697 1 43.8637 34.1966 0
698 1 44.5624 35.406 0
699 1 45.9593 35.4057 0
700 1 42.4663 36.6155 0
701 1 43.8633 36.6153 0
702 1 44.5622 37.8247 0
703 1 45.9592 37.8247 0
704 1 46.658 0.318128 0
705 1 48.0548 0.318128 0
706 1 48.7534 1.5276 0
707 1 50.1502 1.52771 0
708 1 46.658 2.73697 0
709 1 48.0549 2.73715 0
710 1 48.7536 3.94668 0
711 1 50.1504 3.94694 0
712 1 46.6583 5.15595 0
713 1 48.0551 5.15634 0
714 1 48.7538 6.36595 0
715 1 50.1507 6.36634 0
716 1 46.6587 7.57512 0
717 1 48.0556 7.57571 0
718 1 48.7541 8.78549 0
719 1 50.1509 8.78594 0
720 1 46.6592 9.99464 0
721 1 48.056 9.99539 0
722 1 48.7542 11.2053 0
723 1 50.1511 11.2058 0
724 1 46.6594 12.4147 0
725 1 48.0562 12.4154 0
726 1 48.7541 13.6256 0
727 1 50.151 13.6258 0
728 1 46.6591 14.8353 0
729 1 48.0561 14.8356 0
730 1 48.7539 16.0459 0
731 1 50.1509 16.046 0
732 1 46.6586 17.2559 0
733 1 48.0556 17.2559 0
734 1 48.7538 18.4661 0
735 1 50.1508 18.4661 0
736 1 46.6584 19.6761 0
737 1 48.0554 19.6761 0
738 1 48.7538 20.8861 0
739 1 50.1508 20.8861 0
740 1 46.6586 22.0963 0
741 1 48.0556 22.0963 0
742 1 48.7539 23.3063 0
743 1 50.1509 23.3062 0
744 1 46.6591 24.5169 0
745 1 48.0561 24.5166 0
746 1 48.7541 25.7266 0
747 1 50.151 25.7264 0
748 1 46.6594 26.9375 0
749 1 48.0562 26.9368 0
750 1 48.7542 28.1469 0
751 1 50.1511 28.1464 0
752 1 46.6592 29.3576 0
753 1 48.056 29.3568 0
754 1 48.7541 30.5667 0
755 1 50.1509 30.5663 0
756 1 46.6587 31.7771 0
757 1 48.0556 31.7765 0
758 1 48.7538 32.9862 0
759 1 50.1507 32.9859 0
760 1 46.6583 34.1962 0
761 1 48.0551 34.1959 0
762 1 48.7536 35.4055 0
763 1 50.1504 35.4053 0
764 1 46.658 36.6152 0
765 1 48.0549 36.615 0
766 1 48.7534 37.8246 0
767 1 50.1502 37.8245 0
768 1 50.8487 0.318128 0
769 1 52.2454 0.318128 0
770 1 52.9438 1.52777 0
771 1 54.3405 1.52785 0
772 1 50.8487 2.73728 0
773 1 52.2455 2.73745 0
774 1 52.9439 3.94711 0
775 1 54.3407 3.94731 0
776 1 50.8489 5.15658 0
777 1 52.2457 5.15686 0
778 1 52.9441 6.3666 0
779 1 54.3408 6.36686 0
780 1 50.8491 7.57608 0
781 1 52.2459 7.57642 0
782 1 52.9442 8.78625 0
783 1 54.341 8.78653 0
784 1 50.8492 9.99585 0
785 1 52.2461 9.99616 0
786 1 52.9442 11.2061 0
787 1 54.341 11.2063 0
788 1 50.8492 12.4158 0
789 1 52.2461 12.4161 0
790 1 52.9441 13.6261 0
791 1 54.341 13.6262 0
792 1 50.8491 14.8359 0
793 1 52.246 14.836 0
794 1 52.9441 16.0461 0
795 1 54.3409 16.0461 0
796 1 50.849 17.256 0
797 1 52.2459 17.256 0
798 1 52.944 18.4661 0
799 1 54.3409 18.4661 0
800 1 50.8489 19.6761 0
801 1 52.2458 19.6761 0
802 1 52.944 20.8861 0
803 1 54.3409 20.8861 0
804 1 50.849 22.0962 0
805 1 52.2459 22.0961 0
806 1 52.9441 23.3061 0
807 1 54.3409 23.3061 0
808 1 50.8491 24.5163 0
809 1 52.246 24.5162 0
810 1 52.9441 25.7261 0
811 1 54.341 25.726 0
812 1 50.8492 26.9364 0
813 1 52.2461 26.9361 0
814 1 52.9442 28.1461 0
815 1 54.341 28.1459 0
816 1 50.8492 29.3563 0
817 1 52.2461 29.356 0
818 1 52.9442 30.5659 0
819 1 54.341 30.5657 0
820 1 50.8491 31.7761 0
821 1 52.2459 31.7758 0
822 1 52.9441 32.9856 0
823 1 54.3408 32.9853 0
824 1 50.8489 34.1956 0
825 1 52.2457 34.1953 0
826 1 52.9439 35.4051 0
827 1 54.3407 35.4049 0
828 1 50.8487 36.6149 0
829 1 52.2455 36.6147 0
830 1 52.9438 37.8244 0
831 1 54.3405 37.8243 0
832 1 55.0388 0.318128 0
833 1 56.4355 0.318128 0
834 1 57.1337 1.52789 0
835 1 58.5305 1.52792 0
836 1 55.0388 2.73756 0
837 1 56.4356 2.73766 0
838 1 57.1338 3.94743 0
839 1 58.5305 3.94753 0
840 1 55.0389 5.15705 0
841 1 56.4357 5.15723 0
842 1 57.1338 6.36704 0
843 1 58.5306 6.36717 0
844 1 55.039 7.57667 0
845 1 56.4358 7.57688 0
846 1 57.1339 8.78673 0
847 1 58.5306 8.78688 0
848 1 55.0391 9.99642 0
849 1 56.4358 9.99661 0
850 1 57.1339 11.2065 0
851 1 58.5307 11.2066 0
852 1 55.0391 12.4163 0
853 1 56.4359 12.4164 0
854 1 57.1339 13.6263 0
855 1 58.5307 13.6265 0
856 1 55.0391 14.8362 0
857 1 56.4359 14.8363 0
858 1 57.1339 16.0462 0
859 1 58.5307 16.0463 0
860 1 55.0391 17.2561 0
861 1 56.4359 17.2562 0
862 1 57.1339 18.4661 0
863 1 58.5307 18.4662 0
864 1 55.039 19.6761 0
865 1 56.4359 19.6761 0
866 1 57.1339 20.8861 0
867 1 58.5307 20.886 0
868 1 55.0391 22.0961 0
869 1 56.4359 22.096 0
870 1 57.1339 23.306 0
871 1 58.5307 23.3059 0
872 1 55.0391 24.516 0
873 1 56.4359 24.5159 0
874 1 57.1339 25.7258 0
875 1 58.5307 25.7257 0
876 1 55.0391 26.9359 0
877 1 56.4359 26.9358 0
878 1 57.1339 28.1457 0
879 1 58.5307 28.1456 0
880 1 55.0391 29.3558 0
881 1 56.4358 29.3556 0
882 1 57.1339 30.5655 0
883 1 58.5306 30.5653 0
884 1 55.039 31.7755 0
885 1 56.4358 31.7753 0
886 1 57.1338 32.9852 0
887 1 58.5306 32.985 0
888 1 55.0389 34.1951 0
889 1 56.4357 34.195 0
890 1 57.1338 35.4048 0
891 1 58.5305 35.4047 0
892 1 55.0388 36.6146 0
893 1 56.4356 36.6145 0
894 1 57.1337 37.8243 0
895 1 58.5305 37.8243 0
896 1 59.2286 0.318128 0
897 1 60.6254 0.318128 0
898 1 61.3235 1.52794 0
899 1 62.7202 1.52795 0
900 1 59.2286 2.73772 0
901 1 60.6254 2.73776 0
902 1 61.3235 3.94758 0
903 1 62.7202 3.94761 0
904 1 59.2287 5.15734 0
905 1 60.6254 5.15741 0
906 1 61.3235 6.36726 0
907 1 62.7202 6.3673 0
908 1 59.2287 7.57702 0
909 1 60.6254 7.57711 0
910 1 61.3235 8.78697 0
911 1 62.7202 8.78701 0
912 1 59.2287 9.99675 0
913 1 60.6254 9.99684 0
914 1 61.3235 11.2067 0
915 1 62.7202 11.2068 0
916 1 59.2287 12.4165 0
917 1 60.6254 12.4166 0
918 1 61.3235 13.6265 0
919 1 62.7202 13.6266 0
920 1 59.2287 14.8364 0
921 1 60.6254 14.8364 0
922 1 61.3234 16.0463 0
923 1 62.7202 16.0464 0
924 1 59.2287 17.2562 0
925 1 60.6254 17.2563 0
926 1 61.3234 18.4662 0
927 1 62.7202 18.4662 0
928 1 59.2287 19.6761 0
929 1 60.6254 19.6761 0
930 1 61.3234 20.886 0
931 1 62.7202 20.886 0
932 1 59.2287 22.096 0
933 1 60.6254 22.0959 0
934 1 61.3234 23.3059 0
935 1 62.7202 23.3058 0
936 1 59.2287 24.5158 0
937 1 60.6254 24.5158 0
938 1 61.3235 25.7257 0
939 1 62.7202 25.7256 0
940 1 59.2287 26.9356 0
941 1 60.6254 26.9356 0
942 1 61.3235 28.1455 0
943 1 62.7202 28.1454 0
944 1 59.2287 29.3554 0
945 1 60.6254 29.3554 0
946 1 61.3235 30.5652 0
947 1 62.7202 30.5652 0
948 1 59.2287 31.7752 0
949 1 60.6254 31.7751 0
950 1 61.3235 32.9849 0
951 1 62.7202 32.9849 0
952 1 59.2287 34.1949 0
953 1 60.6254 34.1948 0
954 1 61.3235 35.4046 0
955 1 62.7202 35.4046 0
956 1 59.2286 36.6145 0
957 1 60.6254 36.6144 0
958 1 61.3235 37.8243 0
959 1 62.7202 37.8242 0
960 1 63.4184 0.318128 0
961 1 64.8151 0.318128 0
962 1 65.5132 1.52796 0
963 1 66.9099 1.52795 0
964 1 63.4184 2.73778 0
965 1 64.8151 2.73779 0
966 1 65.5132 3.94763 0
967 1 66.9099 3.94761 0
968 1 63.4183 5.15746 0
969 1 64.8151 5.15746 0
970 1 65.5132 6.36732 0
971 1 66.9099 6.36729 0
972 1 63.4183 7.57716 0
973 1 64.815 7.57716 0
974 1 65.5131 8.78704 0
975 1 66.9098 8.78701 0
976 1 63.4183 9.99689 0
977 1 64.815 9.9969 0
978 1 65.5131 11.2068 0
979 1 66.9098 11.2068 0
980 1 63.4182 12.4167 0
981 1 64.815 12.4167 0
982 1 65.513 13.6266 0
983 1 66.9098 13.6265 0
984 1 63.4182 14.8365 0
985 1 64.815 14.8365 0
986 1 65.513 16.0464 0
987 1 66.9097 16.0464 0
988 1 63.4182 17.2563 0
989 1 64.8149 17.2563 0
990 1 65.513 18.4662 0
991 1 66.9097 18.4662 0
992 1 63.4182 19.6761 0
993 1 64.8149 19.6761 0
994 1 65.513 20.886 0
995 1 66.9097 20.886 0
996 1 63.4182 22.0959 0
997 1 64.8149 22.0959 0
998 1 65.513 23.3058 0
999 1 66.9097 23.3058 0
1000 1 63.4182 24.5157 0
1001 1 64.815 24.5157 0
1002 1 65.513 25.7256 0
1003 1 66.9098 25.7257 0
1004 1 63.4182 26.9355 0
1005 1 64.815 26.9355 0
1006 1 65.5131 28.1454 0
1007 1 66.9098 28.1454 0
1008 1 63.4183 29.3553 0
1009 1 64.815 29.3553 0
1010 1 65.5131 30.5652 0
1011 1 66.9098 30.5652 0
1012 1 63.4183 31.775 0
1013 1 64.815 31.775 0
1014 1 65.5132 32.9849 0
1015 1 66.9099 32.9849 0
1016 1 63.4183 34.1947 0
1017 1 64.8151 34.1947 0
1018 1 65.5132 35.4046 0
1019 1 66.9099 35.4046 0
1020 1 63.4184 36.6144 0
1021 1 64.8151 36.6144 0
1022 1 65.5132 37.8242 0
1023 1 66.9099 37.8242 0
