ITEM: TIMESTEP
132
ITEM: NUMBER OF ATOMS
1024
ITEM: BOX BOUNDS pp pp ff
5.2700798669842364e-01 6.7632992013301546e+01
3.2842288733349068e-01 3.9023771112666481e+01
-2.0000000000000000e+01 2.0000000000000000e+01
ITEM: ATOMS id type x y z
1 1 0.527638 39.0235 0
2 1 1.92431 0.332745 0
3 1 2.62466 1.54135 0
4 1 4.02139 1.5459 0
5 1 0.529587 2.74587 0
6 1 1.92627 2.7503 0
7 1 2.6264 3.959 0
8 1 4.02316 3.9632 0
9 1 0.531079 5.16379 0
10 1 1.92775 5.16787 0
11 1 2.62743 6.37678 0
12 1 4.02418 6.3805 0
13 1 0.531879 7.58195 0
14 1 1.92852 7.58557 0
15 1 2.62759 8.79477 0
16 1 4.02431 8.79796 0
17 1 0.531878 10.0004 0
18 1 1.92848 10.0035 0
19 1 2.62687 11.2131 0
20 1 4.02353 11.2157 0
21 1 0.531109 12.4192 0
22 1 1.92767 12.4218 0
23 1 2.62542 13.6317 0
24 1 4.02201 13.6339 0
25 1 0.529715 14.8382 0
26 1 1.92623 14.8405 0
27 1 2.62348 16.0506 0
28 1 4.02 16.0526 0
29 1 0.527918 17.2574 0
30 1 1.9244 17.2595 0
31 1 2.62135 18.4697 0
32 1 4.01782 18.4718 0
33 1 67.632 19.6766 0
34 1 1.92244 19.6787 0
35 1 2.61933 20.889 0
36 1 4.01575 20.8912 0
37 1 67.6301 22.0958 0
38 1 1.92061 22.0981 0
39 1 2.61768 23.3083 0
40 1 4.01409 23.3109 0
41 1 67.6287 24.5148 0
42 1 1.91917 24.5175 0
43 1 2.61665 25.7275 0
44 1 4.01306 25.7306 0
45 1 67.6278 26.9336 0
46 1 1.91832 26.9367 0
47 1 2.61638 28.1464 0
48 1 4.01281 28.15 0
49 1 67.6277 29.352 0
50 1 1.91822 29.3556 0
51 1 2.61695 30.565 0
52 1 4.01342 30.5691 0
53 1 67.6283 31.7702 0
54 1 1.9189 31.7742 0
55 1 2.6183 32.9833 0
56 1 4.01483 32.9878 0
57 1 67.6297 34.1881 0
58 1 1.9203 34.1925 0
59 1 2.62025 35.4013 0
60 1 4.01685 35.406 0
61 1 67.6315 36.6058 0
62 1 1.9222 36.6104 0
63 1 2.62249 37.8191 0
64 1 4.01916 37.8238 0
65 1 4.71973 0.336942 0
66 1 6.11648 0.341711 0
67 1 6.81744 1.55003 0
68 1 8.21432 1.55478 0
69 1 4.72192 2.75441 0
70 1 6.11874 2.75884 0
71 1 6.81952 3.96723 0
72 1 8.21649 3.97149 0
73 1 4.72336 5.17186 0
74 1 6.12022 5.1758 0
75 1 6.8205 6.38441 0
76 1 8.21749 6.38804 0
77 1 4.72381 7.58942 0
78 1 6.12066 7.59277 0
79 1 6.82019 8.80172 0
80 1 8.21714 8.80466 0
81 1 4.72321 10.0072 0
82 1 6.12 10.01 0
83 1 6.81863 11.2193 0
84 1 8.21547 11.2216 0
85 1 4.72167 12.4254 0
86 1 6.11836 12.4276 0
87 1 6.81608 13.6374 0
88 1 8.21278 13.6392 0
89 1 4.71945 14.8439 0
90 1 6.11604 14.8458 0
91 1 6.81299 16.056 0
92 1 8.20954 16.0577 0
93 1 4.71694 17.2629 0
94 1 6.11343 17.2647 0
95 1 6.80987 18.4752 0
96 1 8.20628 18.477 0
97 1 4.71449 19.6821 0
98 1 6.1109 19.6842 0
99 1 6.80715 20.8948 0
100 1 8.20346 20.897 0
101 1 4.71245 22.1016 0
102 1 6.1088 22.1041 0
103 1 6.8052 23.3147 0
104 1 8.20144 23.3175 0
105 1 4.71107 24.5212 0
106 1 6.1074 24.5242 0
107 1 6.80427 25.7346 0
108 1 8.20048 25.7381 0
109 1 4.71057 26.9406 0
110 1 6.1069 26.9442 0
111 1 6.80451 28.1542 0
112 1 8.20074 28.1585 0
113 1 4.71103 29.3597 0
114 1 6.1074 29.3639 0
115 1 6.80594 30.5735 0
116 1 8.20223 30.5783 0
117 1 4.71243 31.7785 0
118 1 6.10886 31.7831 0
119 1 6.80836 32.9922 0
120 1 8.20478 32.9973 0
121 1 4.71458 34.1968 0
122 1 6.1111 34.2016 0
123 1 6.81141 35.4103 0
124 1 8.20798 35.4155 0
125 1 4.71715 36.6147 0
126 1 6.11379 36.6196 0
127 1 6.8146 37.828 0
128 1 8.21134 37.8331 0
129 1 8.91275 0.345858 0
130 1 10.3097 0.35097 0
131 1 11.0117 1.55882 0
132 1 12.4088 1.56388 0
133 1 8.91571 2.7629 0
134 1 10.3128 2.76755 0
135 1 11.0146 3.97551 0
136 1 12.4118 3.98005 0
137 1 8.91749 5.17977 0
138 1 10.3146 5.18382 0
139 1 11.0158 6.39206 0
140 1 12.4132 6.39589 0
141 1 8.91778 7.59665 0
142 1 10.3149 7.59995 0
143 1 11.0151 8.80863 0
144 1 12.4124 8.81158 0
145 1 8.91644 10.0137 0
146 1 10.3135 10.0162 0
147 1 11.0123 11.2255 0
148 1 12.4095 11.2275 0
149 1 8.91363 12.4312 0
150 1 10.3105 12.433 0
151 1 11.0079 13.6429 0
152 1 12.4047 13.6442 0
153 1 8.90985 14.8493 0
154 1 10.3065 14.8507 0
155 1 11.0026 16.0613 0
156 1 12.3991 16.0623 0
157 1 8.90577 17.2682 0
158 1 10.3022 17.2697 0
159 1 10.9974 18.4807 0
160 1 12.3937 18.482 0
161 1 8.90204 19.6878 0
162 1 10.2983 19.6897 0
163 1 10.9932 20.901 0
164 1 12.3893 20.9031 0
165 1 8.89918 22.108 0
166 1 10.2953 22.1105 0
167 1 10.9904 23.3218 0
168 1 12.3864 23.3249 0
169 1 8.89752 24.5283 0
170 1 10.2936 24.5317 0
171 1 10.9895 25.7427 0
172 1 12.3853 25.7469 0
173 1 8.89733 26.9486 0
174 1 10.2934 26.9528 0
175 1 10.9905 28.1632 0
176 1 12.3864 28.1684 0
177 1 8.89868 29.3684 0
178 1 10.2948 29.3734 0
179 1 10.9935 30.5829 0
180 1 12.3895 30.5887 0
181 1 8.9014 31.7876 0
182 1 10.2977 31.793 0
183 1 10.9979 33.0018 0
184 1 12.3942 33.0077 0
185 1 8.90505 34.206 0
186 1 10.3015 34.2116 0
187 1 11.0028 35.4198 0
188 1 12.3994 35.4256 0
189 1 8.90904 36.6239 0
190 1 10.3057 36.6293 0
191 1 11.0076 37.8372 0
192 1 12.4045 37.8427 0
193 1 13.1072 0.354885 0
194 1 14.5044 0.360261 0
195 1 15.2077 1.56761 0
196 1 16.6051 1.5728 0
197 1 13.1114 2.77152 0
198 1 14.5088 2.7765 0
199 1 15.2118 3.98405 0
200 1 16.6095 3.98896 0
201 1 13.1139 5.18792 0
202 1 14.5115 5.19236 0
203 1 15.2138 6.40024 0
204 1 16.6117 6.40467 0
205 1 13.1144 7.60417 0
206 1 14.512 7.60781 0
207 1 15.2132 8.81621 0
208 1 16.6112 8.81973 0
209 1 13.1123 10.0204 0
210 1 14.5098 10.023 0
211 1 15.2091 11.2322 0
212 1 16.6068 11.2343 0
213 1 13.1076 12.4371 0
214 1 14.5047 12.4385 0
215 1 15.2016 13.6487 0
216 1 16.5988 13.6494 0
217 1 13.101 14.8547 0
218 1 14.4977 14.8553 0
219 1 15.1923 16.0666 0
220 1 16.5888 16.0666 0
221 1 13.0939 17.2735 0
222 1 14.4902 17.2742 0
223 1 15.1832 18.4863 0
224 1 16.5792 18.4868 0
225 1 13.0877 19.6937 0
226 1 14.4837 19.6952 0
227 1 15.1761 20.9076 0
228 1 16.5718 20.9096 0
229 1 13.0832 22.1149 0
230 1 14.479 22.1176 0
231 1 15.1718 23.33 0
232 1 16.5672 23.3338 0
233 1 13.0809 24.5365 0
234 1 14.4765 24.5406 0
235 1 15.1709 25.7524 0
236 1 16.5661 25.7579 0
237 1 13.0813 26.9578 0
238 1 14.4769 26.9632 0
239 1 15.1739 28.1737 0
240 1 16.5692 28.1803 0
241 1 13.0844 29.3783 0
242 1 14.4801 29.3845 0
243 1 15.18 30.5934 0
244 1 16.5758 30.6001 0
245 1 13.0896 31.7976 0
246 1 14.4857 31.8039 0
247 1 15.1877 33.0117 0
248 1 16.584 33.018 0
249 1 13.0958 34.2158 0
250 1 14.4923 34.2218 0
251 1 15.1953 35.4292 0
252 1 16.592 35.435 0
253 1 13.1019 36.6332 0
254 1 14.4987 36.639 0
255 1 15.2021 37.8462 0
256 1 16.5992 37.8517 0
257 1 17.3032 0.363405 0
258 1 18.7007 0.368379 0
259 1 19.405 1.5755 0
260 1 20.8028 1.57988 0
261 1 17.3089 2.7801 0
262 1 18.7067 2.78509 0
263 1 19.4107 3.99257 0
264 1 20.8088 3.99745 0
265 1 17.3128 5.19657 0
266 1 18.7109 5.20154 0
267 1 19.4144 6.40934 0
268 1 20.8129 6.41469 0
269 1 17.3143 7.61267 0
270 1 18.7126 7.61729 0
271 1 19.4153 8.82551 0
272 1 20.8141 8.83072 0
273 1 17.3121 10.0284 0
274 1 18.7105 10.0319 0
275 1 19.4111 11.2409 0
276 1 20.81 11.2448 0
277 1 17.3052 12.444 0
278 1 18.7032 12.4456 0
279 1 19.3999 13.6561 0
280 1 20.798 13.6572 0
281 1 17.2938 14.8604 0
282 1 18.6909 14.8603 0
283 1 19.3831 16.0725 0
284 1 20.7797 16.0716 0
285 1 17.281 17.2789 0
286 1 18.6772 17.2785 0
287 1 19.3662 18.4923 0
288 1 20.7617 18.492 0
289 1 17.27 19.7 0
290 1 18.6656 19.7009 0
291 1 19.3535 20.9156 0
292 1 20.7484 20.9181 0
293 1 17.2624 22.123 0
294 1 18.6576 22.1263 0
295 1 19.3467 23.3408 0
296 1 20.7409 23.3466 0
297 1 17.2593 24.5467 0
298 1 18.6542 24.5524 0
299 1 19.3474 25.7648 0
300 1 20.7414 25.7729 0
301 1 17.2616 26.9691 0
302 1 18.6565 26.9763 0
303 1 19.3559 28.1854 0
304 1 20.7508 28.1933 0
305 1 17.2689 29.3893 0
306 1 18.6643 29.3965 0
307 1 19.3679 30.6033 0
308 1 20.7638 30.6098 0
309 1 17.2784 31.8076 0
310 1 18.6745 31.814 0
311 1 19.3794 33.0201 0
312 1 20.776 33.0253 0
313 1 17.2878 34.2249 0
314 1 18.6844 34.2305 0
315 1 19.3893 35.4369 0
316 1 20.7864 35.4412 0
317 1 17.2961 36.6419 0
318 1 18.6932 36.6471 0
319 1 19.3978 37.8538 0
320 1 20.7953 37.8579 0
321 1 21.5 0.369496 0
322 1 22.8978 0.372331 0
323 1 23.602 1.57987 0
324 1 25 1.58105 0
325 1 21.5071 2.78737 0
326 1 22.9052 2.79108 0
327 1 23.6091 3.99934 0
328 1 25.0075 4.00222 0
329 1 21.5129 5.20536 0
330 1 22.9114 5.21035 0
331 1 23.6153 6.41901 0
332 1 25.0142 6.42421 0
333 1 21.5167 7.62286 0
334 1 22.9157 7.62906 0
335 1 23.6197 8.83786 0
336 1 25.0194 8.8457 0
337 1 21.517 10.0393 0
338 1 22.9165 10.0459 0
339 1 23.6198 11.2551 0
340 1 25.0206 11.2646 0
341 1 21.51 12.4545 0
342 1 22.9098 12.4593 0
343 1 23.6088 13.6701 0
344 1 25.0103 13.6771 0
345 1 21.4919 14.8689 0
346 1 22.89 14.8694 0
347 1 23.5787 16.0831 0
348 1 24.9763 16.0828 0
349 1 21.4672 17.2857 0
350 1 22.8629 17.2842 0
351 1 23.5432 18.5012 0
352 1 24.9373 18.5007 0
353 1 21.4459 19.708 0
354 1 22.8404 19.7093 0
355 1 23.5178 20.9287 0
356 1 24.9101 20.9356 0
357 1 21.4327 22.1347 0
358 1 22.8261 22.1409 0
359 1 23.5082 23.3588 0
360 1 24.8985 23.3718 0
361 1 21.4301 24.561 0
362 1 22.8228 24.5709 0
363 1 23.5218 25.7798 0
364 1 24.9143 25.7914 0
365 1 21.4406 26.9819 0
366 1 22.8346 26.9912 0
367 1 23.5435 28.1944 0
368 1 24.9392 28.201 0
369 1 21.4562 29.3989 0
370 1 22.852 29.4053 0
371 1 23.5611 30.6086 0
372 1 24.9579 30.6114 0
373 1 21.4703 31.8148 0
374 1 22.867 31.8191 0
375 1 23.5746 33.0234 0
376 1 24.9718 33.0243 0
377 1 21.482 34.2308 0
378 1 22.8791 34.2338 0
379 1 23.5852 35.4393 0
380 1 24.9827 35.4394 0
381 1 21.4917 36.6475 0
382 1 22.8892 36.65 0
383 1 23.5942 37.8567 0
384 1 24.9919 37.8569 0
385 1 25.6959 0.369001 0
386 1 27.0939 0.366387 0
387 1 27.7962 1.57518 0
388 1 29.1943 1.5694 0
389 1 25.7032 2.78966 0
390 1 27.1014 2.78868 0
391 1 27.8029 3.99871 0
392 1 29.2012 3.99468 0
393 1 25.7104 5.21165 0
394 1 27.109 5.21313 0
395 1 27.8104 6.42415 0
396 1 29.2091 6.42285 0
397 1 25.7176 7.63406 0
398 1 27.1168 7.63928 0
399 1 27.8192 8.85117 0
400 1 29.219 8.85473 0
401 1 25.7237 10.0557 0
402 1 27.1243 10.0661 0
403 1 27.8289 11.2783 0
404 1 29.2307 11.2903 0
405 1 25.7249 12.4749 0
406 1 27.1277 12.4897 0
407 1 27.8338 13.7025 0
408 1 29.2407 13.7261 0
409 1 25.7077 14.8899 0
410 1 27.1123 14.9016 0
411 1 27.8054 16.1193 0
412 1 29.2174 16.143 0
413 1 25.655 17.2995 0
414 1 27.0503 17.2998 0
415 1 27.7044 18.5225 0
416 1 29.0938 18.5377 0
417 1 25.6043 19.7232 0
418 1 26.9952 19.7315 0
419 1 27.6393 20.9667 0
420 1 29.0165 20.9927 0
421 1 25.5794 22.1598 0
422 1 26.9654 22.1778 0
423 1 27.6634 23.3853 0
424 1 29.0492 23.4056 0
425 1 25.5972 24.5804 0
426 1 26.9874 24.5954 0
427 1 27.7142 25.7865 0
428 1 29.1114 25.7899 0
429 1 25.6295 26.9904 0
430 1 27.0253 26.9966 0
431 1 27.7441 28.1923 0
432 1 29.1421 28.1864 0
433 1 25.6522 29.4013 0
434 1 27.0493 29.4016 0
435 1 27.7619 30.6017 0
436 1 29.1597 30.5927 0
437 1 25.6677 31.8141 0
438 1 27.0652 31.8114 0
439 1 27.7737 33.0147 0
440 1 29.1716 33.0053 0
441 1 25.679 34.2288 0
442 1 27.0766 34.2251 0
443 1 27.7824 35.4306 0
444 1 29.1802 35.4221 0
445 1 25.6881 36.6455 0
446 1 27.0858 36.642 0
447 1 27.7896 37.8493 0
448 1 29.1875 37.8421 0
449 1 29.8892 0.355608 0
450 1 31.2872 0.345495 0
451 1 31.9873 1.55557 0
452 1 33.3852 1.54315 0
453 1 29.8948 2.7796 0
454 1 31.2928 2.77043 0
455 1 31.9923 3.98133 0
456 1 33.3904 3.96792 0
457 1 29.901 5.20609 0
458 1 31.2992 5.19763 0
459 1 31.9983 6.40959 0
460 1 33.3966 6.39372 0
461 1 29.9088 7.63571 0
462 1 31.3076 7.62849 0
463 1 32.0064 8.84213 0
464 1 33.405 8.8218 0
465 1 29.9195 10.0694 0
466 1 31.3193 10.0655 0
467 1 32.0188 11.2822 0
468 1 33.4182 11.2546 0
469 1 29.9346 12.5069 0
470 1 31.3375 12.5134 0
471 1 32.042 13.7359 0
472 1 33.4441 13.6986 0
473 1 29.9489 14.9463 0
474 1 31.3638 14.9781 0
475 1 32.0815 16.2193 0
476 1 33.512 16.1779 0
477 1 29.897 17.3744 0
478 1 31.3321 17.4387 0
479 1 31.8991 18.73 0
480 1 34.3005 18.7417 0
481 1 29.6809 19.7843 0
482 1 31.0272 19.8336 0
483 1 31.7214 21.0346 0
484 1 33.1128 20.8293 0
485 1 29.7138 22.1991 0
486 1 31.0926 22.226 0
487 1 31.8799 23.357 0
488 1 33.2887 23.241 0
489 1 29.7982 24.5803 0
490 1 31.1999 24.5687 0
491 1 31.9332 25.7458 0
492 1 33.3331 25.6801 0
493 1 29.8381 26.9782 0
494 1 31.2374 26.9555 0
495 1 31.9533 28.1508 0
496 1 33.3523 28.1118 0
497 1 29.8574 29.3834 0
498 1 31.2558 29.3623 0
499 1 31.9644 30.5649 0
500 1 33.3628 30.5396 0
501 1 29.8692 31.7947 0
502 1 31.2673 31.7773 0
503 1 31.9719 32.9834 0
504 1 33.37 32.9652 0
505 1 29.8773 34.2105 0
506 1 31.2752 34.1963 0
507 1 31.9776 35.4043 0
508 1 33.3756 35.3899 0
509 1 29.8836 36.6294 0
510 1 31.2815 36.6177 0
511 1 31.9825 37.8269 0
512 1 33.3805 37.8142 0
513 1 34.0805 0.328802 0
514 1 35.4784 39.0114 0
515 1 36.1795 1.5253 0
516 1 37.5774 1.51355 0
517 1 34.0854 2.75311 0
518 1 35.4834 2.73868 0
519 1 36.1857 3.94669 0
520 1 37.5837 3.93249 0
521 1 34.091 5.17779 0
522 1 35.4891 5.15959 0
523 1 36.1937 6.36569 0
524 1 37.5918 6.34825 0
525 1 34.0982 7.60341 0
526 1 35.4966 7.5781 0
527 1 36.2051 8.7807 0
528 1 37.6036 8.75953 0
529 1 34.1087 10.0312 0
530 1 35.5077 9.99214 0
531 1 36.2236 11.1875 0
532 1 37.6229 11.1647 0
533 1 34.1279 12.4629 0
534 1 35.5278 12.3972 0
535 1 36.2611 13.5742 0
536 1 37.6628 13.5627 0
537 1 34.1722 14.9019 0
538 1 35.5811 14.786 0
539 1 36.3684 15.917 0
540 1 37.7472 15.9439 0
541 1 34.3481 17.3137 0
542 1 35.7396 17.1084 0
543 1 36.4338 18.3093 0
544 1 37.7801 18.3587 0
545 1 33.1604 19.4012 0
546 1 35.5618 19.4129 0
547 1 36.1289 20.7043 0
548 1 37.564 20.7685 0
549 1 33.9489 21.965 0
550 1 35.3795 21.9237 0
551 1 36.0972 23.1648 0
552 1 37.5121 23.1966 0
553 1 34.0169 24.4444 0
554 1 35.419 24.4071 0
555 1 36.1235 25.6295 0
556 1 37.5263 25.6361 0
557 1 34.0428 26.8883 0
558 1 35.4422 26.8608 0
559 1 36.1416 28.0775 0
560 1 37.5415 28.0736 0
561 1 34.056 29.3212 0
562 1 35.4546 29.3008 0
563 1 36.1534 30.5145 0
564 1 37.5522 30.5073 0
565 1 34.0644 31.7492 0
566 1 35.4627 31.7334 0
567 1 36.1617 32.9453 0
568 1 37.56 32.9369 0
569 1 34.0706 34.175 0
570 1 35.4687 34.1616 0
571 1 36.1681 35.3725 0
572 1 37.5662 35.3634 0
573 1 34.0757 36.5998 0
574 1 35.4737 36.5874 0
575 1 36.1738 37.7975 0
576 1 37.5718 37.7874 0
577 1 38.2735 38.9962 0
578 1 39.6714 38.989 0
579 1 40.3752 1.50095 0
580 1 41.7729 1.49743 0
581 1 38.2808 2.72085 0
582 1 39.6786 2.71233 0
583 1 40.3843 3.91786 0
584 1 41.782 3.91419 0
585 1 38.2894 5.13771 0
586 1 39.6873 5.1283 0
587 1 40.3958 6.33158 0
588 1 41.7933 6.32891 0
589 1 38.3012 7.55024 0
590 1 39.6991 7.54124 0
591 1 40.4116 8.74132 0
592 1 41.8088 8.74167 0
593 1 38.3189 9.95656 0
594 1 39.7169 9.95066 0
595 1 40.4356 11.1464 0
596 1 41.8315 11.1525 0
597 1 38.3496 12.3531 0
598 1 39.7468 12.3565 0
599 1 40.4736 13.5475 0
600 1 41.8638 13.5626 0
601 1 38.4118 14.7373 0
602 1 39.7976 14.7576 0
603 1 40.4956 15.9652 0
604 1 41.8816 15.9832 0
605 1 38.4445 17.1502 0
606 1 39.8217 17.1762 0
607 1 40.4658 18.4114 0
608 1 41.8567 18.4197 0
609 1 38.3672 19.6053 0
610 1 39.7565 19.6205 0
611 1 40.4107 20.8431 0
612 1 41.806 20.8435 0
613 1 38.2436 21.9999 0
614 1 39.6555 22.0237 0
615 1 40.3487 23.2413 0
616 1 41.7533 23.2531 0
617 1 38.2202 24.4169 0
618 1 39.6272 24.4405 0
619 1 40.3333 25.6533 0
620 1 41.7361 25.668 0
621 1 38.2302 26.8527 0
622 1 39.632 26.8646 0
623 1 40.3367 28.0769 0
624 1 41.7373 28.0872 0
625 1 38.242 29.2882 0
626 1 39.6418 29.2918 0
627 1 40.3441 30.5037 0
628 1 41.7434 30.5089 0
629 1 38.2518 31.7201 0
630 1 39.6506 31.7188 0
631 1 40.352 32.9298 0
632 1 41.7506 32.9313 0
633 1 38.2598 34.1483 0
634 1 39.658 34.1443 0
635 1 40.3595 35.3543 0
636 1 41.7578 35.3533 0
637 1 38.2667 36.5736 0
638 1 39.6648 36.5678 0
639 1 40.3671 37.7766 0
640 1 41.7651 37.774 0
641 1 42.4691 38.9814 0
642 1 43.8668 38.9817 0
643 1 44.5718 1.49291 0
644 1 45.9693 1.49548 0
645 1 42.4783 2.70352 0
646 1 43.8757 2.70362 0
647 1 44.5819 3.90912 0
648 1 45.979 3.91215 0
649 1 42.4892 5.1187 0
650 1 43.8864 5.11957 0
651 1 44.594 6.3239 0
652 1 45.9906 6.32819 0
653 1 42.503 7.53155 0
654 1 43.8999 7.5344 0
655 1 44.609 8.73769 0
656 1 46.0048 8.74411 0
657 1 42.5218 9.94196 0
658 1 43.9175 9.94852 0
659 1 44.6263 11.1518 0
660 1 46.0203 11.161 0
661 1 42.5467 12.3515 0
662 1 43.9392 12.3632 0
663 1 44.6382 13.572 0
664 1 46.0309 13.5819 0
665 1 42.5625 14.7711 0
666 1 43.9527 14.7841 0
667 1 44.6349 16.002 0
668 1 46.0283 16.0083 0
669 1 42.5509 17.2074 0
670 1 43.9432 17.2143 0
671 1 44.6206 18.4336 0
672 1 46.015 18.435 0
673 1 42.5237 19.6423 0
674 1 43.9178 19.6418 0
675 1 44.598 20.8587 0
676 1 45.9938 20.8573 0
677 1 42.4847 22.0601 0
678 1 43.8822 22.0599 0
679 1 44.571 23.2736 0
680 1 45.9691 23.2741 0
681 1 42.4507 24.4659 0
682 1 43.8521 24.4729 0
683 1 44.5512 25.6837 0
684 1 45.9509 25.6885 0
685 1 42.4404 26.8783 0
686 1 43.8412 26.8879 0
687 1 44.5444 28.0971 0
688 1 45.944 28.1037 0
689 1 42.4416 29.2973 0
690 1 43.8412 29.3051 0
691 1 44.5452 30.5139 0
692 1 45.9442 30.5201 0
693 1 42.4468 31.7188 0
694 1 43.8457 31.724 0
695 1 44.5496 32.9326 0
696 1 45.9481 32.9376 0
697 1 42.4535 34.1407 0
698 1 43.8519 34.1436 0
699 1 44.5558 35.3519 0
700 1 45.9539 35.3556 0
701 1 42.4609 36.5619 0
702 1 43.859 36.5631 0
703 1 44.5632 37.7706 0
704 1 45.961 37.7735 0
705 1 46.6657 38.9804 0
706 1 48.0631 38.9845 0
707 1 48.7678 1.49591 0
708 1 50.1649 1.50106 0
709 1 46.6746 2.70172 0
710 1 48.0716 2.70609 0
711 1 48.7765 3.91243 0
712 1 50.1732 3.91806 0
713 1 46.685 5.11766 0
714 1 48.0816 5.12282 0
715 1 48.7865 6.32898 0
716 1 50.1826 6.33541 0
717 1 46.6972 7.53321 0
718 1 48.0931 7.53969 0
719 1 48.7967 8.74646 0
720 1 50.1921 8.75369 0
721 1 46.7102 9.9497 0
722 1 48.1051 9.95761 0
723 1 48.8045 11.1667 0
724 1 50.1993 11.1738 0
725 1 46.7196 12.37 0
726 1 48.1136 12.3782 0
727 1 48.8068 13.5906 0
728 1 50.2017 13.5963 0
729 1 46.72 14.7964 0
730 1 48.1143 14.8022 0
731 1 48.8034 16.0166 0
732 1 50.1985 16.0199 0
733 1 46.7126 17.2248 0
734 1 48.1075 17.2273 0
735 1 48.7954 18.442 0
736 1 50.191 18.443 0
737 1 46.6993 19.651 0
738 1 48.0948 19.6507 0
739 1 48.7838 20.8645 0
740 1 50.18 20.864 0
741 1 46.6813 22.0714 0
742 1 48.0779 22.0704 0
743 1 48.7701 23.2827 0
744 1 50.1672 23.2825 0
745 1 46.663 24.4858 0
746 1 48.0611 24.4869 0
747 1 48.7578 25.6973 0
748 1 50.1558 25.699 0
749 1 46.651 26.8982 0
750 1 48.0499 26.902 0
751 1 48.7505 28.1111 0
752 1 50.1488 28.1146 0
753 1 46.6469 29.3122 0
754 1 48.0457 29.3175 0
755 1 48.7484 30.5257 0
756 1 50.1467 30.5303 0
757 1 46.648 31.7283 0
758 1 48.0465 31.7336 0
759 1 48.7501 32.9414 0
760 1 50.1482 32.9464 0
761 1 46.6522 34.1455 0
762 1 48.0503 34.1504 0
763 1 48.7543 35.3579 0
764 1 50.1521 35.3629 0
765 1 46.6582 36.5631 0
766 1 48.056 36.5675 0
767 1 48.7603 37.7746 0
768 1 50.1578 37.7796 0
769 1 50.8618 38.9866 0
770 1 52.2589 38.9921 0
771 1 52.9623 1.50399 0
772 1 54.3591 1.50972 0
773 1 50.8689 2.70794 0
774 1 52.2657 2.71375 0
775 1 52.9687 3.92113 0
776 1 54.3652 3.92719 0
777 1 50.877 5.12497 0
778 1 52.2733 5.13125 0
779 1 52.9753 6.3391 0
780 1 54.3714 6.3454 0
781 1 50.8852 7.54286 0
782 1 52.2809 7.54958 0
783 1 52.9808 8.75851 0
784 1 54.3766 8.76466 0
785 1 50.8918 9.96268 0
786 1 52.2871 9.96929 0
787 1 52.9841 11.1797 0
788 1 54.3797 11.1851 0
789 1 50.8949 12.3851 0
790 1 52.2901 12.3906 0
791 1 52.9844 13.6024 0
792 1 54.3801 13.6065 0
793 1 50.8938 14.8092 0
794 1 52.2892 14.813 0
795 1 52.982 16.0254 0
796 1 54.3778 16.0281 0
797 1 50.8892 17.2334 0
798 1 52.2849 17.2353 0
799 1 52.9773 18.4478 0
800 1 54.3733 18.4493 0
801 1 50.8817 19.6562 0
802 1 52.2778 19.6567 0
803 1 52.9707 20.8688 0
804 1 54.3671 20.8694 0
805 1 50.8722 22.0764 0
806 1 52.2687 22.0764 0
807 1 52.9633 23.2876 0
808 1 54.36 23.2883 0
809 1 50.8622 24.4936 0
810 1 52.2594 24.4942 0
811 1 52.9562 25.7044 0
812 1 54.3534 25.7058 0
813 1 50.8541 26.9087 0
814 1 52.2519 26.9108 0
815 1 52.9512 28.12 0
816 1 54.3487 28.1225 0
817 1 50.8498 29.3232 0
818 1 52.2478 29.3267 0
819 1 52.9489 30.5352 0
820 1 54.3466 30.5388 0
821 1 50.8492 31.7383 0
822 1 52.2471 31.7427 0
823 1 52.9495 32.9506 0
824 1 54.347 32.955 0
825 1 50.8515 34.154 0
826 1 52.2492 34.1589 0
827 1 52.9522 35.3665 0
828 1 54.3496 35.3714 0
829 1 50.8559 36.5702 0
830 1 52.2533 36.5754 0
831 1 52.9566 37.7827 0
832 1 54.3538 37.7881 0
833 1 55.0565 38.9957 0
834 1 56.4534 39.0011 0
835 1 57.1552 1.51369 0
836 1 58.5519 1.51911 0
837 1 55.0615 2.7174 0
838 1 56.4581 2.72317 0
839 1 57.1595 3.93139 0
840 1 58.5559 3.93693 0
841 1 55.0668 5.13527 0
842 1 56.4631 5.14118 0
843 1 57.1633 6.34997 0
844 1 58.5596 6.35539 0
845 1 55.0714 7.55426 0
846 1 56.4675 7.56002 0
847 1 57.1662 8.76959 0
848 1 58.5623 8.77458 0
849 1 55.0746 9.97459 0
850 1 56.4705 9.97978 0
851 1 57.1676 11.1901 0
852 1 58.5636 11.1944 0
853 1 55.0757 12.3961 0
854 1 56.4715 12.4003 0
855 1 57.1674 13.6113 0
856 1 58.5635 13.6147 0
857 1 55.0746 14.8181 0
858 1 56.4705 14.8212 0
859 1 57.1656 16.0325 0
860 1 58.5618 16.035 0
861 1 55.0717 17.2399 0
862 1 56.4678 17.242 0
863 1 57.1627 18.4533 0
864 1 58.5589 18.4551 0
865 1 55.0673 19.6609 0
866 1 56.4635 19.6623 0
867 1 57.1588 20.8733 0
868 1 58.5552 20.8747 0
869 1 55.0618 22.0806 0
870 1 56.4584 22.0816 0
871 1 57.1545 23.2922 0
872 1 58.5511 23.2936 0
873 1 55.0562 24.4988 0
874 1 56.4531 24.5 0
875 1 57.1505 25.71 0
876 1 58.5474 25.7118 0
877 1 55.0515 26.9155 0
878 1 56.4486 26.9175 0
879 1 57.1475 28.1268 0
880 1 58.5445 28.1292 0
881 1 55.0486 29.3314 0
882 1 56.4459 29.3343 0
883 1 57.146 30.543 0
884 1 58.5432 30.5463 0
885 1 55.0478 31.7471 0
886 1 56.4452 31.7509 0
887 1 57.1463 32.9591 0
888 1 58.5435 32.9632 0
889 1 55.0491 34.1629 0
890 1 56.4464 34.1675 0
891 1 57.1482 35.3754 0
892 1 58.5453 35.3801 0
893 1 55.0522 36.5791 0
894 1 56.4493 36.5841 0
895 1 57.1513 37.792 0
896 1 58.5482 37.7971 0
897 1 59.2496 39.0052 0
898 1 60.6464 39.0103 0
899 1 61.3472 1.52337 0
900 1 62.7438 1.5283 0
901 1 59.253 2.72743 0
902 1 60.6496 2.73264 0
903 1 61.3499 3.94133 0
904 1 62.7464 3.94621 0
905 1 59.2562 5.14566 0
906 1 60.6526 5.15079 0
907 1 61.3521 6.35989 0
908 1 62.7485 6.36451 0
909 1 59.2587 7.56469 0
910 1 60.655 7.56949 0
911 1 61.3536 8.77907 0
912 1 62.7499 8.78324 0
913 1 59.2602 9.98449 0
914 1 60.6565 9.98873 0
915 1 61.3541 11.1988 0
916 1 62.7504 11.2024 0
917 1 59.2605 12.4049 0
918 1 60.6567 12.4084 0
919 1 61.3536 13.6188 0
920 1 62.7499 13.6218 0
921 1 59.2595 14.8254 0
922 1 60.6558 14.8283 0
923 1 61.3522 16.0389 0
924 1 62.7485 16.0413 0
925 1 59.2575 17.2459 0
926 1 60.6538 17.2481 0
927 1 61.3501 18.4588 0
928 1 62.7465 18.4608 0
929 1 59.2547 19.666 0
930 1 60.6511 19.6678 0
931 1 61.3476 20.8782 0
932 1 62.744 20.8801 0
933 1 59.2514 22.0853 0
934 1 60.648 22.0869 0
935 1 61.3449 23.2971 0
936 1 62.7415 23.2991 0
937 1 59.2482 24.5037 0
938 1 60.6449 24.5056 0
939 1 61.3426 25.7154 0
940 1 62.7393 25.7176 0
941 1 59.2455 26.9213 0
942 1 60.6424 26.9236 0
943 1 61.341 28.133 0
944 1 62.7378 28.1358 0
945 1 59.2438 29.3383 0
946 1 60.6408 29.3412 0
947 1 61.3403 30.5502 0
948 1 62.7372 30.5535 0
949 1 59.2435 31.7549 0
950 1 60.6405 31.7586 0
951 1 61.3408 32.9672 0
952 1 62.7376 32.9711 0
953 1 59.2445 34.1715 0
954 1 60.6415 34.1757 0
955 1 61.3422 35.3841 0
956 1 62.7391 35.3886 0
957 1 59.2467 36.5882 0
958 1 60.6435 36.5929 0
959 1 61.3445 37.8013 0
960 1 62.7412 37.806 0
961 1 63.4418 39.0145 0
962 1 64.8385 39.0193 0
963 1 65.5388 1.53255 0
964 1 66.9354 1.53716 0
965 1 63.4441 2.73696 0
966 1 64.8407 2.74166 0
967 1 65.5407 3.95048 0
968 1 66.9373 3.95489 0
969 1 63.4461 5.15516 0
970 1 64.8427 5.15964 0
971 1 65.5421 6.36873 0
972 1 66.9387 6.37279 0
973 1 63.4476 7.57383 0
974 1 64.844 7.57792 0
975 1 65.5428 8.78735 0
976 1 66.9393 8.79094 0
977 1 63.4482 9.99295 0
978 1 64.8446 9.99655 0
979 1 65.5427 11.2063 0
980 1 66.9392 11.2094 0
981 1 63.4479 12.4124 0
982 1 64.8443 12.4155 0
983 1 65.5418 13.6255 0
984 1 66.9383 13.6282 0
985 1 63.4469 14.8321 0
986 1 64.8433 14.8347 0
987 1 65.5404 16.0449 0
988 1 66.9368 16.0472 0
989 1 63.4452 17.2517 0
990 1 64.8417 17.254 0
991 1 65.5385 18.4642 0
992 1 66.935 18.4664 0
993 1 63.4432 19.6712 0
994 1 64.8396 19.6732 0
995 1 65.5366 20.8835 0
996 1 66.9331 20.8856 0
997 1 63.441 22.0903 0
998 1 64.8375 22.0924 0
999 1 65.5347 23.3025 0
1000 1 66.9313 23.3048 0
1001 1 63.439 24.509 0
1002 1 64.8356 24.5113 0
1003 1 65.5333 25.7211 0
1004 1 66.9299 25.7238 0
1005 1 63.4374 26.9272 0
1006 1 64.8341 26.9299 0
1007 1 65.5325 28.1394 0
1008 1 66.9291 28.1426 0
1009 1 63.4367 29.345 0
1010 1 64.8334 29.3482 0
1011 1 65.5325 30.5574 0
1012 1 66.9291 30.561 0
1013 1 63.4368 31.7625 0
1014 1 64.8335 31.7662 0
1015 1 65.5332 32.9751 0
1016 1 66.9299 32.9792 0
1017 1 63.4378 34.1798 0
1018 1 64.8346 34.184 0
1019 1 65.5347 35.3927 0
1020 1 66.9314 35.3971 0
1021 1 63.4396 36.5971 0
1022 1 64.8363 36.6016 0
1023 1 65.5367 37.8102 0
1024 1 66.9333 37.8148 0
