ITEM: TIMESTEP
258
ITEM: NUMBER OF ATOMS
856
ITEM: BOX BOUNDS pp pp ff
-1.1091428728802502e+00 7.7789142872880461e+01
-4.2644773230957811e-01 2.9940593732309576e+01
-2.0000000000000000e+01 2.0000000000000000e+01
ITEM: ATOMS id type x y z
1 1 77.7887 29.9406 0
2 1 0.35082 29.9406 0
3 1 1.08116 0.838909 0
4 1 2.54161 0.838874 0
5 1 77.7886 2.10428 0
6 1 0.350813 2.10428 0
7 1 1.08113 3.36959 0
8 1 2.54157 3.36953 0
9 1 77.7886 4.63493 0
10 1 0.350795 4.63493 0
11 1 1.08111 5.9002 0
12 1 2.54151 5.90016 0
13 1 77.7886 7.1655 0
14 1 0.350765 7.16551 0
15 1 1.08105 8.43076 0
16 1 2.54144 8.43073 0
17 1 77.7886 9.69603 0
18 1 0.350724 9.69604 0
19 1 1.08098 10.9613 0
20 1 2.54136 10.9613 0
21 1 77.7886 12.2266 0
22 1 0.350658 12.2266 0
23 1 1.08093 13.4918 0
24 1 2.54129 13.4918 0
25 1 77.7885 14.7571 0
26 1 0.350614 14.7571 0
27 1 1.08093 16.0223 0
28 1 2.54129 16.0223 0
29 1 77.7886 17.2876 0
30 1 0.350658 17.2876 0
31 1 1.08098 18.5529 0
32 1 2.54136 18.5528 0
33 1 77.7886 19.8181 0
34 1 0.350724 19.8181 0
35 1 1.08105 21.0834 0
36 1 2.54144 21.0834 0
37 1 77.7886 22.3486 0
38 1 0.350765 22.3486 0
39 1 1.08111 23.6139 0
40 1 2.54151 23.614 0
41 1 77.7886 24.8792 0
42 1 0.350795 24.8792 0
43 1 1.08113 26.1446 0
44 1 2.54157 26.1446 0
45 1 77.7886 27.4099 0
46 1 0.350813 27.4099 0
47 1 1.08116 28.6752 0
48 1 2.54161 28.6753 0
49 1 3.27194 29.9406 0
50 1 4.73243 29.9406 0
51 1 5.46275 0.838805 0
52 1 6.92329 0.838786 0
53 1 3.27193 2.10415 0
54 1 4.73239 2.10411 0
55 1 5.46268 3.36932 0
56 1 6.92318 3.36927 0
57 1 3.27187 4.63477 0
58 1 4.7323 4.63468 0
59 1 5.46257 5.89989 0
60 1 6.923 5.89983 0
61 1 3.27178 7.16539 0
62 1 4.73219 7.16529 0
63 1 5.46243 8.43052 0
64 1 6.92276 8.43045 0
65 1 3.2717 9.69597 0
66 1 4.73205 9.69592 0
67 1 5.46227 10.9612 0
68 1 6.92257 10.9611 0
69 1 3.27161 12.2265 0
70 1 4.73194 12.2265 0
71 1 5.46219 13.4918 0
72 1 6.92247 13.4917 0
73 1 3.27157 14.7571 0
74 1 4.73192 14.7571 0
75 1 5.46219 16.0224 0
76 1 6.92247 16.0224 0
77 1 3.27161 17.2876 0
78 1 4.73194 17.2876 0
79 1 5.46227 18.553 0
80 1 6.92257 18.5531 0
81 1 3.2717 19.8182 0
82 1 4.73205 19.8182 0
83 1 5.46243 21.0836 0
84 1 6.92276 21.0837 0
85 1 3.27178 22.3488 0
86 1 4.73219 22.3489 0
87 1 5.46257 23.6143 0
88 1 6.923 23.6143 0
89 1 3.27187 24.8794 0
90 1 4.7323 24.8795 0
91 1 5.46268 26.1448 0
92 1 6.92318 26.1449 0
93 1 3.27193 27.41 0
94 1 4.73239 27.41 0
95 1 5.46275 28.6753 0
96 1 6.92329 28.6754 0
97 1 7.65366 29.9406 0
98 1 9.11428 29.9406 0
99 1 9.84463 0.838706 0
100 1 11.3053 0.838689 0
101 1 7.6536 2.10397 0
102 1 9.11419 2.10393 0
103 1 9.84444 3.3691 0
104 1 11.305 3.36905 0
105 1 7.65343 4.63446 0
106 1 9.11394 4.63441 0
107 1 9.84409 5.89962 0
108 1 11.3046 5.89956 0
109 1 7.65319 7.16505 0
110 1 9.11358 7.165 0
111 1 9.8437 8.43022 0
112 1 11.3041 8.43018 0
113 1 7.65294 9.69571 0
114 1 9.11325 9.69564 0
115 1 9.8434 10.9609 0
116 1 11.3037 10.9609 0
117 1 7.65278 12.2264 0
118 1 9.11303 12.2263 0
119 1 9.84324 13.4917 0
120 1 11.3035 13.4917 0
121 1 7.65272 14.7571 0
122 1 9.11295 14.7571 0
123 1 9.84324 16.0225 0
124 1 11.3035 16.0225 0
125 1 7.65278 17.2878 0
126 1 9.11303 17.2878 0
127 1 9.8434 18.5532 0
128 1 11.3037 18.5533 0
129 1 7.65294 19.8184 0
130 1 9.11325 19.8185 0
131 1 9.8437 21.0839 0
132 1 11.3041 21.084 0
133 1 7.65319 22.3491 0
134 1 9.11358 22.3491 0
135 1 9.84409 23.6145 0
136 1 11.3046 23.6146 0
137 1 7.65343 24.8797 0
138 1 9.11394 24.8797 0
139 1 9.84444 26.145 0
140 1 11.305 26.1451 0
141 1 7.6536 27.4102 0
142 1 9.11419 27.4102 0
143 1 9.84463 28.6754 0
144 1 11.3053 28.6755 0
145 1 12.0357 29.9406 0
146 1 13.4963 29.9406 0
147 1 14.2267 0.838625 0
148 1 15.6874 0.838606 0
149 1 12.0355 2.10381 0
150 1 13.4962 2.10379 0
151 1 14.2264 3.36884 0
152 1 15.6871 3.36882 0
153 1 12.0352 4.63419 0
154 1 13.4958 4.63415 0
155 1 14.2258 5.89926 0
156 1 15.6864 5.89925 0
157 1 12.0347 7.16474 0
158 1 13.4951 7.16469 0
159 1 14.2251 8.42993 0
160 1 15.6855 8.42989 0
161 1 12.0342 9.69543 0
162 1 13.4945 9.69541 0
163 1 14.2246 10.9607 0
164 1 15.6848 10.9607 0
165 1 12.0338 12.2263 0
166 1 13.4941 12.2262 0
167 1 14.2242 13.4916 0
168 1 15.6843 13.4916 0
169 1 12.0337 14.7571 0
170 1 13.4939 14.7571 0
171 1 14.2242 16.0225 0
172 1 15.6843 16.0225 0
173 1 12.0338 17.2879 0
174 1 13.4941 17.2879 0
175 1 14.2246 18.5534 0
176 1 15.6848 18.5535 0
177 1 12.0342 19.8187 0
178 1 13.4945 19.8187 0
179 1 14.2251 21.0842 0
180 1 15.6855 21.0843 0
181 1 12.0347 22.3494 0
182 1 13.4951 22.3495 0
183 1 14.2258 23.6149 0
184 1 15.6864 23.6149 0
185 1 12.0352 24.88 0
186 1 13.4958 24.88 0
187 1 14.2264 26.1453 0
188 1 15.6871 26.1453 0
189 1 12.0355 27.4103 0
190 1 13.4962 27.4104 0
191 1 14.2267 28.6755 0
192 1 15.6874 28.6755 0
193 1 16.4179 29.9406 0
194 1 17.8788 29.9406 0
195 1 18.6092 0.838579 0
196 1 20.0702 0.83859 0
197 1 16.4177 2.10362 0
198 1 17.8785 2.10364 0
199 1 18.6087 3.36869 0
200 1 20.0696 3.36873 0
201 1 16.4171 4.63391 0
202 1 17.8779 4.63391 0
203 1 18.6078 5.89897 0
204 1 20.0685 5.89901 0
205 1 16.4163 7.16441 0
206 1 17.8768 7.16438 0
207 1 18.6066 8.42953 0
208 1 20.067 8.42953 0
209 1 16.4154 9.69513 0
210 1 17.8757 9.69512 0
211 1 18.6054 10.9604 0
212 1 20.0654 10.9604 0
213 1 16.4147 12.226 0
214 1 17.8747 12.226 0
215 1 18.6046 13.4915 0
216 1 20.0644 13.4915 0
217 1 16.4145 14.7571 0
218 1 17.8743 14.7571 0
219 1 18.6046 16.0227 0
220 1 20.0644 16.0227 0
221 1 16.4147 17.2881 0
222 1 17.8747 17.2881 0
223 1 18.6054 18.5538 0
224 1 20.0654 18.5538 0
225 1 16.4154 19.819 0
226 1 17.8757 19.819 0
227 1 18.6066 21.0846 0
228 1 20.067 21.0846 0
229 1 16.4163 22.3497 0
230 1 17.8768 22.3498 0
231 1 18.6078 23.6152 0
232 1 20.0685 23.6151 0
233 1 16.4171 24.8802 0
234 1 17.8779 24.8802 0
235 1 18.6087 26.1455 0
236 1 20.0696 26.1454 0
237 1 16.4177 27.4105 0
238 1 17.8785 27.4105 0
239 1 18.6092 28.6756 0
240 1 20.0702 28.6756 0
241 1 20.8008 29.9406 0
242 1 22.262 29.9406 0
243 1 22.9924 0.838587 0
244 1 24.4538 0.838646 0
245 1 20.8005 2.10361 0
246 1 22.2616 2.10368 0
247 1 22.9917 3.36868 0
248 1 24.453 3.36878 0
249 1 20.7996 4.63374 0
250 1 22.2606 4.63382 0
251 1 22.9904 5.89881 0
252 1 24.4516 5.89891 0
253 1 20.7982 7.16405 0
254 1 22.259 7.16412 0
255 1 22.9883 8.42911 0
256 1 24.4491 8.42925 0
257 1 20.7965 9.69465 0
258 1 22.2567 9.69472 0
259 1 22.9856 10.9599 0
260 1 24.4451 10.9604 0
261 1 20.7949 12.2257 0
262 1 22.2544 12.2258 0
263 1 22.9839 13.4915 0
264 1 24.4428 13.4913 0
265 1 20.7943 14.7571 0
266 1 22.2537 14.7571 0
267 1 22.9839 16.0227 0
268 1 24.4428 16.0229 0
269 1 20.7949 17.2884 0
270 1 22.2544 17.2883 0
271 1 22.9856 18.5543 0
272 1 24.4451 18.5538 0
273 1 20.7965 19.8195 0
274 1 22.2567 19.8194 0
275 1 22.9883 21.085 0
276 1 24.4491 21.0849 0
277 1 20.7982 22.3501 0
278 1 22.259 22.35 0
279 1 22.9904 23.6153 0
280 1 24.4516 23.6152 0
281 1 20.7996 24.8804 0
282 1 22.2606 24.8803 0
283 1 22.9917 26.1455 0
284 1 24.453 26.1454 0
285 1 20.8005 27.4105 0
286 1 22.2616 27.4105 0
287 1 22.9924 28.6756 0
288 1 24.4538 28.6755 0
289 1 25.1845 29.9406 0
290 1 26.646 29.9406 0
291 1 27.3766 0.838678 0
292 1 28.8384 0.838722 0
293 1 25.1841 2.10369 0
294 1 26.6457 2.10378 0
295 1 27.376 3.3688 0
296 1 28.8379 3.36898 0
297 1 25.183 4.63373 0
298 1 26.6446 4.63387 0
299 1 27.3744 5.89877 0
300 1 28.8365 5.89897 0
301 1 25.1811 7.16382 0
302 1 26.6426 7.16392 0
303 1 27.3718 8.4286 0
304 1 28.8342 8.42855 0
305 1 25.1778 9.69414 0
306 1 26.6388 9.69407 0
307 1 27.3665 10.9583 0
308 1 28.8327 10.9564 0
309 1 25.1725 12.226 0
310 1 26.6284 12.2276 0
311 1 27.3574 13.4923 0
312 1 28.8009 13.4517 0
313 1 25.1736 14.7571 0
314 1 26.6353 14.7571 0
315 1 27.3574 16.0219 0
316 1 28.8009 16.0625 0
317 1 25.1725 17.2882 0
318 1 26.6284 17.2865 0
319 1 27.3665 18.5558 0
320 1 28.8327 18.5578 0
321 1 25.1778 19.82 0
322 1 26.6388 19.8201 0
323 1 27.3718 21.0855 0
324 1 28.8342 21.0856 0
325 1 25.1811 22.3503 0
326 1 26.6426 22.3502 0
327 1 27.3744 23.6154 0
328 1 28.8365 23.6152 0
329 1 25.183 24.8804 0
330 1 26.6446 24.8803 0
331 1 27.376 26.1453 0
332 1 28.8379 26.1452 0
333 1 25.1841 27.4105 0
334 1 26.6457 27.4104 0
335 1 27.3766 28.6755 0
336 1 28.8384 28.6754 0
337 1 29.5693 29.9406 0
338 1 31.0312 29.9406 0
339 1 31.762 0.838886 0
340 1 33.224 0.838954 0
341 1 29.569 2.10393 0
342 1 31.031 2.10409 0
343 1 31.7616 3.36937 0
344 1 33.2238 3.36963 0
345 1 29.5681 4.63404 0
346 1 31.0303 4.63442 0
347 1 31.7605 5.89971 0
348 1 33.223 5.90028 0
349 1 29.5662 7.16376 0
350 1 31.0287 7.16444 0
351 1 31.7583 8.42995 0
352 1 33.2217 8.43109 0
353 1 29.5636 9.69238 0
354 1 31.0244 9.69373 0
355 1 31.7498 10.959 0
356 1 33.2225 10.9614 0
357 1 29.5588 12.2229 0
358 1 31.0102 12.2279 0
359 1 31.7641 13.4625 0
360 1 33.1972 13.4652 0
361 1 31.7641 16.0517 0
362 1 33.1972 16.049 0
363 1 29.5588 17.2913 0
364 1 31.0102 17.2863 0
365 1 31.7498 18.5551 0
366 1 33.2225 18.5528 0
367 1 29.5636 19.8218 0
368 1 31.0244 19.8204 0
369 1 31.7583 21.0842 0
370 1 33.2217 21.0831 0
371 1 29.5662 22.3504 0
372 1 31.0287 22.3497 0
373 1 31.7605 23.6144 0
374 1 33.223 23.6139 0
375 1 29.5681 24.8801 0
376 1 31.0303 24.8797 0
377 1 31.7616 26.1448 0
378 1 33.2238 26.1445 0
379 1 29.569 27.4102 0
380 1 31.031 27.4101 0
381 1 31.762 28.6753 0
382 1 33.224 28.6752 0
383 1 33.9549 29.9406 0
384 1 35.417 29.9406 0
385 1 36.1479 0.839046 0
386 1 37.61 0.839046 0
387 1 33.9548 2.10438 0
388 1 35.417 2.10447 0
389 1 36.1478 3.36992 0
390 1 37.61 3.36992 0
391 1 33.9544 4.63508 0
392 1 35.4168 4.63533 0
393 1 36.1476 5.90093 0
394 1 37.6102 5.90093 0
395 1 33.9535 7.16588 0
396 1 35.4163 7.16635 0
397 1 36.1471 8.4323 0
398 1 37.6108 8.4323 0
399 1 33.9528 9.69653 0
400 1 35.4143 9.69736 0
401 1 36.1425 10.9632 0
402 1 37.6154 10.9632 0
403 1 33.9562 12.2335 0
404 1 35.4062 12.2346 0
405 1 36.1626 13.4675 0
406 1 37.5953 13.4675 0
407 1 36.1626 16.0467 0
408 1 37.5953 16.0467 0
409 1 33.9562 17.2806 0
410 1 35.4062 17.2795 0
411 1 36.1425 18.5509 0
412 1 37.6154 18.5509 0
413 1 33.9528 19.8176 0
414 1 35.4143 19.8168 0
415 1 36.1471 21.0818 0
416 1 37.6108 21.0818 0
417 1 33.9535 22.3483 0
418 1 35.4163 22.3478 0
419 1 36.1476 23.6132 0
420 1 37.6102 23.6132 0
421 1 33.9544 24.8791 0
422 1 35.4168 24.8788 0
423 1 36.1478 26.1442 0
424 1 37.61 26.1442 0
425 1 33.9548 27.4098 0
426 1 35.417 27.4097 0
427 1 36.1479 28.6751 0
428 1 37.61 28.6751 0
429 1 38.3409 29.9406 0
430 1 39.803 29.9406 0
431 1 40.5338 0.838954 0
432 1 41.9959 0.838886 0
433 1 38.3409 2.10447 0
434 1 39.803 2.10438 0
435 1 40.5341 3.36963 0
436 1 41.9962 3.36937 0
437 1 38.3411 4.63533 0
438 1 39.8034 4.63508 0
439 1 40.5349 5.90028 0
440 1 41.9973 5.89971 0
441 1 38.3415 7.16635 0
442 1 39.8044 7.16588 0
443 1 40.5361 8.43109 0
444 1 41.9996 8.42995 0
445 1 38.3435 9.69736 0
446 1 39.805 9.69653 0
447 1 40.5353 10.9614 0
448 1 42.0081 10.959 0
449 1 38.3516 12.2346 0
450 1 39.8017 12.2335 0
451 1 40.5607 13.4652 0
452 1 41.9937 13.4625 0
453 1 40.5607 16.049 0
454 1 41.9937 16.0517 0
455 1 38.3516 17.2795 0
456 1 39.8017 17.2806 0
457 1 40.5353 18.5528 0
458 1 42.0081 18.5551 0
459 1 38.3435 19.8168 0
460 1 39.805 19.8176 0
461 1 40.5361 21.0831 0
462 1 41.9996 21.0842 0
463 1 38.3415 22.3478 0
464 1 39.8044 22.3483 0
465 1 40.5349 23.6139 0
466 1 41.9973 23.6144 0
467 1 38.3411 24.8788 0
468 1 39.8034 24.8791 0
469 1 40.5341 26.1445 0
470 1 41.9962 26.1448 0
471 1 38.3409 27.4097 0
472 1 39.803 27.4098 0
473 1 40.5338 28.6752 0
474 1 41.9959 28.6753 0
475 1 42.7267 29.9406 0
476 1 44.1886 29.9406 0
477 1 44.9194 0.838722 0
478 1 46.3812 0.838678 0
479 1 42.7268 2.10409 0
480 1 44.1888 2.10393 0
481 1 44.92 3.36898 0
482 1 46.3819 3.3688 0
483 1 42.7275 4.63442 0
484 1 44.1898 4.63404 0
485 1 44.9213 5.89897 0
486 1 46.3834 5.89877 0
487 1 42.7291 7.16444 0
488 1 44.1916 7.16376 0
489 1 44.9237 8.42855 0
490 1 46.3861 8.4286 0
491 1 42.7335 9.69373 0
492 1 44.1942 9.69238 0
493 1 44.9252 10.9564 0
494 1 46.3914 10.9583 0
495 1 42.7476 12.2279 0
496 1 44.1991 12.2229 0
497 1 44.957 13.4517 0
498 1 46.4004 13.4923 0
499 1 44.957 16.0625 0
500 1 46.4004 16.0219 0
501 1 42.7476 17.2863 0
502 1 44.1991 17.2913 0
503 1 44.9252 18.5578 0
504 1 46.3914 18.5558 0
505 1 42.7335 19.8204 0
506 1 44.1942 19.8218 0
507 1 44.9237 21.0856 0
508 1 46.3861 21.0855 0
509 1 42.7291 22.3497 0
510 1 44.1916 22.3504 0
511 1 44.9213 23.6152 0
512 1 46.3834 23.6154 0
513 1 42.7275 24.8797 0
514 1 44.1898 24.8801 0
515 1 44.92 26.1452 0
516 1 46.3819 26.1453 0
517 1 42.7268 27.4101 0
518 1 44.1888 27.4102 0
519 1 44.9194 28.6754 0
520 1 46.3812 28.6755 0
521 1 47.1118 29.9406 0
522 1 48.5734 29.9406 0
523 1 49.3041 0.838646 0
524 1 50.7654 0.838587 0
525 1 47.1121 2.10378 0
526 1 48.5737 2.10369 0
527 1 49.3048 3.36878 0
528 1 50.7661 3.36868 0
529 1 47.1132 4.63387 0
530 1 48.5748 4.63373 0
531 1 49.3062 5.89891 0
532 1 50.7675 5.89881 0
533 1 47.1152 7.16392 0
534 1 48.5767 7.16382 0
535 1 49.3087 8.42925 0
536 1 50.7695 8.42911 0
537 1 47.119 9.69407 0
538 1 48.58 9.69414 0
539 1 49.3128 10.9604 0
540 1 50.7723 10.9599 0
541 1 47.1294 12.2276 0
542 1 48.5854 12.226 0
543 1 49.3151 13.4913 0
544 1 50.774 13.4915 0
545 1 47.1226 14.7571 0
546 1 48.5843 14.7571 0
547 1 49.3151 16.0229 0
548 1 50.774 16.0227 0
549 1 47.1294 17.2865 0
550 1 48.5854 17.2882 0
551 1 49.3128 18.5538 0
552 1 50.7723 18.5543 0
553 1 47.119 19.8201 0
554 1 48.58 19.82 0
555 1 49.3087 21.0849 0
556 1 50.7695 21.085 0
557 1 47.1152 22.3502 0
558 1 48.5767 22.3503 0
559 1 49.3062 23.6152 0
560 1 50.7675 23.6153 0
561 1 47.1132 24.8803 0
562 1 48.5748 24.8804 0
563 1 49.3048 26.1454 0
564 1 50.7661 26.1455 0
565 1 47.1121 27.4104 0
566 1 48.5737 27.4105 0
567 1 49.3041 28.6755 0
568 1 50.7654 28.6756 0
569 1 51.4959 29.9406 0
570 1 52.9571 29.9406 0
571 1 53.6876 0.83859 0
572 1 55.1487 0.838579 0
573 1 51.4962 2.10368 0
574 1 52.9574 2.10361 0
575 1 53.6882 3.36873 0
576 1 55.1492 3.36869 0
577 1 51.4972 4.63382 0
578 1 52.9583 4.63374 0
579 1 53.6893 5.89901 0
580 1 55.1501 5.89897 0
581 1 51.4988 7.16412 0
582 1 52.9596 7.16405 0
583 1 53.6908 8.42953 0
584 1 55.1513 8.42953 0
585 1 51.5011 9.69472 0
586 1 52.9614 9.69465 0
587 1 53.6925 10.9604 0
588 1 55.1525 10.9604 0
589 1 51.5034 12.2258 0
590 1 52.9629 12.2257 0
591 1 53.6935 13.4915 0
592 1 55.1532 13.4915 0
593 1 51.5041 14.7571 0
594 1 52.9635 14.7571 0
595 1 53.6935 16.0227 0
596 1 55.1532 16.0227 0
597 1 51.5034 17.2883 0
598 1 52.9629 17.2884 0
599 1 53.6925 18.5538 0
600 1 55.1525 18.5538 0
601 1 51.5011 19.8194 0
602 1 52.9614 19.8195 0
603 1 53.6908 21.0846 0
604 1 55.1513 21.0846 0
605 1 51.4988 22.35 0
606 1 52.9596 22.3501 0
607 1 53.6893 23.6151 0
608 1 55.1501 23.6152 0
609 1 51.4972 24.8803 0
610 1 52.9583 24.8804 0
611 1 53.6882 26.1454 0
612 1 55.1492 26.1455 0
613 1 51.4962 27.4105 0
614 1 52.9574 27.4105 0
615 1 53.6876 28.6756 0
616 1 55.1487 28.6756 0
617 1 55.8791 29.9406 0
618 1 57.34 29.9406 0
619 1 58.0704 0.838606 0
620 1 59.5312 0.838625 0
621 1 55.8793 2.10364 0
622 1 57.3402 2.10362 0
623 1 58.0708 3.36882 0
624 1 59.5315 3.36884 0
625 1 55.88 4.63391 0
626 1 57.3407 4.63391 0
627 1 58.0715 5.89925 0
628 1 59.532 5.89926 0
629 1 55.881 7.16438 0
630 1 57.3415 7.16441 0
631 1 58.0723 8.42989 0
632 1 59.5327 8.42993 0
633 1 55.8822 9.69512 0
634 1 57.3424 9.69513 0
635 1 58.0731 10.9607 0
636 1 59.5333 10.9607 0
637 1 55.8831 12.226 0
638 1 57.3431 12.226 0
639 1 58.0735 13.4916 0
640 1 59.5336 13.4916 0
641 1 55.8835 14.7571 0
642 1 57.3434 14.7571 0
643 1 58.0735 16.0225 0
644 1 59.5336 16.0225 0
645 1 55.8831 17.2881 0
646 1 57.3431 17.2881 0
647 1 58.0731 18.5535 0
648 1 59.5333 18.5534 0
649 1 55.8822 19.819 0
650 1 57.3424 19.819 0
651 1 58.0723 21.0843 0
652 1 59.5327 21.0842 0
653 1 55.881 22.3498 0
654 1 57.3415 22.3497 0
655 1 58.0715 23.6149 0
656 1 59.532 23.6149 0
657 1 55.88 24.8802 0
658 1 57.3407 24.8802 0
659 1 58.0708 26.1453 0
660 1 59.5315 26.1453 0
661 1 55.8793 27.4105 0
662 1 57.3402 27.4105 0
663 1 58.0704 28.6755 0
664 1 59.5312 28.6755 0
665 1 60.2615 29.9406 0
666 1 61.7222 29.9406 0
667 1 62.4526 0.838689 0
668 1 63.9132 0.838706 0
669 1 60.2616 2.10379 0
670 1 61.7223 2.10381 0
671 1 62.4528 3.36905 0
672 1 63.9134 3.3691 0
673 1 60.2621 4.63415 0
674 1 61.7227 4.63419 0
675 1 62.4533 5.89956 0
676 1 63.9138 5.89962 0
677 1 60.2627 7.16469 0
678 1 61.7232 7.16474 0
679 1 62.4538 8.43018 0
680 1 63.9141 8.43022 0
681 1 60.2633 9.69541 0
682 1 61.7237 9.69543 0
683 1 62.4542 10.9609 0
684 1 63.9144 10.9609 0
685 1 60.2638 12.2262 0
686 1 61.724 12.2263 0
687 1 62.4544 13.4917 0
688 1 63.9146 13.4917 0
689 1 60.2639 14.7571 0
690 1 61.7241 14.7571 0
691 1 62.4544 16.0225 0
692 1 63.9146 16.0225 0
693 1 60.2638 17.2879 0
694 1 61.724 17.2879 0
695 1 62.4542 18.5533 0
696 1 63.9144 18.5532 0
697 1 60.2633 19.8187 0
698 1 61.7237 19.8187 0
699 1 62.4538 21.084 0
700 1 63.9141 21.0839 0
701 1 60.2627 22.3495 0
702 1 61.7232 22.3494 0
703 1 62.4533 23.6146 0
704 1 63.9138 23.6145 0
705 1 60.2621 24.88 0
706 1 61.7227 24.88 0
707 1 62.4528 26.1451 0
708 1 63.9134 26.145 0
709 1 60.2616 27.4104 0
710 1 61.7223 27.4103 0
711 1 62.4526 28.6755 0
712 1 63.9132 28.6754 0
713 1 64.6436 29.9406 0
714 1 66.1042 29.9406 0
715 1 66.8345 0.838786 0
716 1 68.2951 0.838805 0
717 1 64.6436 2.10393 0
718 1 66.1042 2.10397 0
719 1 66.8347 3.36927 0
720 1 68.2952 3.36932 0
721 1 64.6439 4.63441 0
722 1 66.1044 4.63446 0
723 1 66.8348 5.89983 0
724 1 68.2953 5.89989 0
725 1 64.6443 7.165 0
726 1 66.1047 7.16505 0
727 1 66.8351 8.43045 0
728 1 68.2954 8.43052 0
729 1 64.6446 9.69564 0
730 1 66.1049 9.69571 0
731 1 66.8353 10.9611 0
732 1 68.2956 10.9612 0
733 1 64.6448 12.2263 0
734 1 66.1051 12.2264 0
735 1 66.8354 13.4917 0
736 1 68.2957 13.4918 0
737 1 64.6449 14.7571 0
738 1 66.1051 14.7571 0
739 1 66.8354 16.0224 0
740 1 68.2957 16.0224 0
741 1 64.6448 17.2878 0
742 1 66.1051 17.2878 0
743 1 66.8353 18.5531 0
744 1 68.2956 18.553 0
745 1 64.6446 19.8185 0
746 1 66.1049 19.8184 0
747 1 66.8351 21.0837 0
748 1 68.2954 21.0836 0
749 1 64.6443 22.3491 0
750 1 66.1047 22.3491 0
751 1 66.8348 23.6143 0
752 1 68.2953 23.6143 0
753 1 64.6439 24.8797 0
754 1 66.1044 24.8797 0
755 1 66.8347 26.1449 0
756 1 68.2952 26.1448 0
757 1 64.6436 27.4102 0
758 1 66.1042 27.4102 0
759 1 66.8345 28.6754 0
760 1 68.2951 28.6753 0
761 1 69.0254 29.9406 0
762 1 70.4859 29.9406 0
763 1 71.2162 0.838874 0
764 1 72.6767 0.838909 0
765 1 69.0254 2.10411 0
766 1 70.4859 2.10415 0
767 1 71.2163 3.36953 0
768 1 72.6767 3.36959 0
769 1 69.0255 4.63468 0
770 1 70.486 4.63477 0
771 1 71.2163 5.90016 0
772 1 72.6767 5.9002 0
773 1 69.0256 7.16529 0
774 1 70.4861 7.16539 0
775 1 71.2164 8.43073 0
776 1 72.6768 8.43076 0
777 1 69.0258 9.69592 0
778 1 70.4861 9.69597 0
779 1 71.2165 10.9613 0
780 1 72.6769 10.9613 0
781 1 69.0259 12.2265 0
782 1 70.4862 12.2265 0
783 1 71.2165 13.4918 0
784 1 72.6769 13.4918 0
785 1 69.0259 14.7571 0
786 1 70.4863 14.7571 0
787 1 71.2165 16.0223 0
788 1 72.6769 16.0223 0
789 1 69.0259 17.2876 0
790 1 70.4862 17.2876 0
791 1 71.2165 18.5528 0
792 1 72.6769 18.5529 0
793 1 69.0258 19.8182 0
794 1 70.4861 19.8182 0
795 1 71.2164 21.0834 0
796 1 72.6768 21.0834 0
797 1 69.0256 22.3489 0
798 1 70.4861 22.3488 0
799 1 71.2163 23.614 0
800 1 72.6767 23.6139 0
801 1 69.0255 24.8795 0
802 1 70.486 24.8794 0
803 1 71.2163 26.1446 0
804 1 72.6767 26.1446 0
805 1 69.0254 27.41 0
806 1 70.4859 27.41 0
807 1 71.2162 28.6753 0
808 1 72.6767 28.6752 0
809 1 73.407 29.9406 0
810 1 74.8675 29.9406 0
811 1 75.5978 0.838913 0
812 1 77.0583 0.838913 0
813 1 73.407 2.10428 0
814 1 74.8675 2.10428 0
815 1 75.5978 3.36961 0
816 1 77.0583 3.36961 0
817 1 73.407 4.63493 0
818 1 74.8675 4.63493 0
819 1 75.5978 5.90024 0
820 1 77.0583 5.90024 0
821 1 73.4071 7.16551 0
822 1 74.8675 7.1655 0
823 1 75.5978 8.43078 0
824 1 77.0583 8.43078 0
825 1 73.4071 9.69604 0
826 1 74.8675 9.69603 0
827 1 75.5979 10.9613 0
828 1 77.0583 10.9613 0
829 1 73.4072 12.2266 0
830 1 74.8676 12.2266 0
831 1 75.5979 13.4918 0
832 1 77.0583 13.4918 0
833 1 73.4072 14.7571 0
834 1 74.8676 14.7571 0
835 1 75.5979 16.0223 0
836 1 77.0583 16.0223 0
837 1 73.4072 17.2876 0
838 1 74.8676 17.2876 0
839 1 75.5979 18.5529 0
840 1 77.0583 18.5529 0
841 1 73.4071 19.8181 0
842 1 74.8675 19.8181 0
843 1 75.5978 21.0834 0
844 1 77.0583 21.0834 0
845 1 73.4071 22.3486 0
846 1 74.8675 22.3486 0
847 1 75.5978 23.6139 0
848 1 77.0583 23.6139 0
849 1 73.407 24.8792 0
850 1 74.8675 24.8792 0
851 1 75.5978 26.1445 0
852 1 77.0583 26.1445 0
853 1 73.407 27.4099 0
854 1 74.8675 27.4099 0
855 1 75.5978 28.6752 0
856 1 77.0583 28.6752 0
