# Route A case — graphene (AIREBO)

1024 atoms
1 atom types

0.000000 68.160000 xlo xhi
0.000000 39.352194 ylo yhi
-20.000000 20.000000 zlo zhi

Masses

1 12.011

Atoms  # atomic

1 1 0.000000 0.000000 0.000000
2 1 1.420000 0.000000 0.000000
3 1 2.130000 1.229756 0.000000
4 1 3.550000 1.229756 0.000000
5 1 0.000000 2.459512 0.000000
6 1 1.420000 2.459512 0.000000
7 1 2.130000 3.689268 0.000000
8 1 3.550000 3.689268 0.000000
9 1 0.000000 4.919024 0.000000
10 1 1.420000 4.919024 0.000000
11 1 2.130000 6.148780 0.000000
12 1 3.550000 6.148780 0.000000
13 1 0.000000 7.378536 0.000000
14 1 1.420000 7.378536 0.000000
15 1 2.130000 8.608293 0.000000
16 1 3.550000 8.608293 0.000000
17 1 0.000000 9.838049 0.000000
18 1 1.420000 9.838049 0.000000
19 1 2.130000 11.067805 0.000000
20 1 3.550000 11.067805 0.000000
21 1 0.000000 12.297561 0.000000
22 1 1.420000 12.297561 0.000000
23 1 2.130000 13.527317 0.000000
24 1 3.550000 13.527317 0.000000
25 1 0.000000 14.757073 0.000000
26 1 1.420000 14.757073 0.000000
27 1 2.130000 15.986829 0.000000
28 1 3.550000 15.986829 0.000000
29 1 0.000000 17.216585 0.000000
30 1 1.420000 17.216585 0.000000
31 1 2.130000 18.446341 0.000000
32 1 3.550000 18.446341 0.000000
33 1 0.000000 19.676097 0.000000
34 1 1.420000 19.676097 0.000000
35 1 2.130000 20.905853 0.000000
36 1 3.550000 20.905853 0.000000
37 1 0.000000 22.135609 0.000000
38 1 1.420000 22.135609 0.000000
39 1 2.130000 23.365365 0.000000
40 1 3.550000 23.365365 0.000000
41 1 0.000000 24.595121 0.000000
42 1 1.420000 24.595121 0.000000
43 1 2.130000 25.824878 0.000000
44 1 3.550000 25.824878 0.000000
45 1 0.000000 27.054634 0.000000
46 1 1.420000 27.054634 0.000000
47 1 2.130000 28.284390 0.000000
48 1 3.550000 28.284390 0.000000
49 1 0.000000 29.514146 0.000000
50 1 1.420000 29.514146 0.000000
51 1 2.130000 30.743902 0.000000
52 1 3.550000 30.743902 0.000000
53 1 0.000000 31.973658 0.000000
54 1 1.420000 31.973658 0.000000
55 1 2.130000 33.203414 0.000000
56 1 3.550000 33.203414 0.000000
57 1 0.000000 34.433170 0.000000
58 1 1.420000 34.433170 0.000000
59 1 2.130000 35.662926 0.000000
60 1 3.550000 35.662926 0.000000
61 1 0.000000 36.892682 0.000000
62 1 1.420000 36.892682 0.000000
63 1 2.130000 38.122438 0.000000
64 1 3.550000 38.122438 0.000000
65 1 4.260000 0.000000 0.000000
66 1 5.680000 0.000000 0.000000
67 1 6.390000 1.229756 0.000000
68 1 7.810000 1.229756 0.000000
69 1 4.260000 2.459512 0.000000
70 1 5.680000 2.459512 0.000000
71 1 6.390000 3.689268 0.000000
72 1 7.810000 3.689268 0.000000
73 1 4.260000 4.919024 0.000000
74 1 5.680000 4.919024 0.000000
75 1 6.390000 6.148780 0.000000
76 1 7.810000 6.148780 0.000000
77 1 4.260000 7.378536 0.000000
78 1 5.680000 7.378536 0.000000
79 1 6.390000 8.608293 0.000000
80 1 7.810000 8.608293 0.000000
81 1 4.260000 9.838049 0.000000
82 1 5.680000 9.838049 0.000000
83 1 6.390000 11.067805 0.000000
84 1 7.810000 11.067805 0.000000
85 1 4.260000 12.297561 0.000000
86 1 5.680000 12.297561 0.000000
87 1 6.390000 13.527317 0.000000
88 1 7.810000 13.527317 0.000000
89 1 4.260000 14.757073 0.000000
90 1 5.680000 14.757073 0.000000
91 1 6.390000 15.986829 0.000000
92 1 7.810000 15.986829 0.000000
93 1 4.260000 17.216585 0.000000
94 1 5.680000 17.216585 0.000000
95 1 6.390000 18.446341 0.000000
96 1 7.810000 18.446341 0.000000
97 1 4.260000 19.676097 0.000000
98 1 5.680000 19.676097 0.000000
99 1 6.390000 20.905853 0.000000
100 1 7.810000 20.905853 0.000000
101 1 4.260000 22.135609 0.000000
102 1 5.680000 22.135609 0.000000
103 1 6.390000 23.365365 0.000000
104 1 7.810000 23.365365 0.000000
105 1 4.260000 24.595121 0.000000
106 1 5.680000 24.595121 0.000000
107 1 6.390000 25.824878 0.000000
108 1 7.810000 25.824878 0.000000
109 1 4.260000 27.054634 0.000000
110 1 5.680000 27.054634 0.000000
111 1 6.390000 28.284390 0.000000
112 1 7.810000 28.284390 0.000000
113 1 4.260000 29.514146 0.000000
114 1 5.680000 29.514146 0.000000
115 1 6.390000 30.743902 0.000000
116 1 7.810000 30.743902 0.000000
117 1 4.260000 31.973658 0.000000
118 1 5.680000 31.973658 0.000000
119 1 6.390000 33.203414 0.000000
120 1 7.810000 33.203414 0.000000
121 1 4.260000 34.433170 0.000000
122 1 5.680000 34.433170 0.000000
123 1 6.390000 35.662926 0.000000
124 1 7.810000 35.662926 0.000000
125 1 4.260000 36.892682 0.000000
126 1 5.680000 36.892682 0.000000
127 1 6.390000 38.122438 0.000000
128 1 7.810000 38.122438 0.000000
129 1 8.520000 0.000000 0.000000
130 1 9.940000 0.000000 0.000000
131 1 10.650000 1.229756 0.000000
132 1 12.070000 1.229756 0.000000
133 1 8.520000 2.459512 0.000000
134 1 9.940000 2.459512 0.000000
135 1 10.650000 3.689268 0.000000
136 1 12.070000 3.689268 0.000000
137 1 8.520000 4.919024 0.000000
138 1 9.940000 4.919024 0.000000
139 1 10.650000 6.148780 0.000000
140 1 12.070000 6.148780 0.000000
141 1 8.520000 7.378536 0.000000
142 1 9.940000 7.378536 0.000000
143 1 10.650000 8.608293 0.000000
144 1 12.070000 8.608293 0.000000
145 1 8.520000 9.838049 0.000000
146 1 9.940000 9.838049 0.000000
147 1 10.650000 11.067805 0.000000
148 1 12.070000 11.067805 0.000000
149 1 8.520000 12.297561 0.000000
150 1 9.940000 12.297561 0.000000
151 1 10.650000 13.527317 0.000000
152 1 12.070000 13.527317 0.000000
153 1 8.520000 14.757073 0.000000
154 1 9.940000 14.757073 0.000000
155 1 10.650000 15.986829 0.000000
156 1 12.070000 15.986829 0.000000
157 1 8.520000 17.216585 0.000000
158 1 9.940000 17.216585 0.000000
159 1 10.650000 18.446341 0.000000
160 1 12.070000 18.446341 0.000000
161 1 8.520000 19.676097 0.000000
162 1 9.940000 19.676097 0.000000
163 1 10.650000 20.905853 0.000000
164 1 12.070000 20.905853 0.000000
165 1 8.520000 22.135609 0.000000
166 1 9.940000 22.135609 0.000000
167 1 10.650000 23.365365 0.000000
168 1 12.070000 23.365365 0.000000
169 1 8.520000 24.595121 0.000000
170 1 9.940000 24.595121 0.000000
171 1 10.650000 25.824878 0.000000
172 1 12.070000 25.824878 0.000000
173 1 8.520000 27.054634 0.000000
174 1 9.940000 27.054634 0.000000
175 1 10.650000 28.284390 0.000000
176 1 12.070000 28.284390 0.000000
177 1 8.520000 29.514146 0.000000
178 1 9.940000 29.514146 0.000000
179 1 10.650000 30.743902 0.000000
180 1 12.070000 30.743902 0.000000
181 1 8.520000 31.973658 0.000000
182 1 9.940000 31.973658 0.000000
183 1 10.650000 33.203414 0.000000
184 1 12.070000 33.203414 0.000000
185 1 8.520000 34.433170 0.000000
186 1 9.940000 34.433170 0.000000
187 1 10.650000 35.662926 0.000000
188 1 12.070000 35.662926 0.000000
189 1 8.520000 36.892682 0.000000
190 1 9.940000 36.892682 0.000000
191 1 10.650000 38.122438 0.000000
192 1 12.070000 38.122438 0.000000
193 1 12.780000 0.000000 0.000000
194 1 14.200000 0.000000 0.000000
195 1 14.910000 1.229756 0.000000
196 1 16.330000 1.229756 0.000000
197 1 12.780000 2.459512 0.000000
198 1 14.200000 2.459512 0.000000
199 1 14.910000 3.689268 0.000000
200 1 16.330000 3.689268 0.000000
201 1 12.780000 4.919024 0.000000
202 1 14.200000 4.919024 0.000000
203 1 14.910000 6.148780 0.000000
204 1 16.330000 6.148780 0.000000
205 1 12.780000 7.378536 0.000000
206 1 14.200000 7.378536 0.000000
207 1 14.910000 8.608293 0.000000
208 1 16.330000 8.608293 0.000000
209 1 12.780000 9.838049 0.000000
210 1 14.200000 9.838049 0.000000
211 1 14.910000 11.067805 0.000000
212 1 16.330000 11.067805 0.000000
213 1 12.780000 12.297561 0.000000
214 1 14.200000 12.297561 0.000000
215 1 14.910000 13.527317 0.000000
216 1 16.330000 13.527317 0.000000
217 1 12.780000 14.757073 0.000000
218 1 14.200000 14.757073 0.000000
219 1 14.910000 15.986829 0.000000
220 1 16.330000 15.986829 0.000000
221 1 12.780000 17.216585 0.000000
222 1 14.200000 17.216585 0.000000
223 1 14.910000 18.446341 0.000000
224 1 16.330000 18.446341 0.000000
225 1 12.780000 19.676097 0.000000
226 1 14.200000 19.676097 0.000000
227 1 14.910000 20.905853 0.000000
228 1 16.330000 20.905853 0.000000
229 1 12.780000 22.135609 0.000000
230 1 14.200000 22.135609 0.000000
231 1 14.910000 23.365365 0.000000
232 1 16.330000 23.365365 0.000000
233 1 12.780000 24.595121 0.000000
234 1 14.200000 24.595121 0.000000
235 1 14.910000 25.824878 0.000000
236 1 16.330000 25.824878 0.000000
237 1 12.780000 27.054634 0.000000
238 1 14.200000 27.054634 0.000000
239 1 14.910000 28.284390 0.000000
240 1 16.330000 28.284390 0.000000
241 1 12.780000 29.514146 0.000000
242 1 14.200000 29.514146 0.000000
243 1 14.910000 30.743902 0.000000
244 1 16.330000 30.743902 0.000000
245 1 12.780000 31.973658 0.000000
246 1 14.200000 31.973658 0.000000
247 1 14.910000 33.203414 0.000000
248 1 16.330000 33.203414 0.000000
249 1 12.780000 34.433170 0.000000
250 1 14.200000 34.433170 0.000000
251 1 14.910000 35.662926 0.000000
252 1 16.330000 35.662926 0.000000
253 1 12.780000 36.892682 0.000000
254 1 14.200000 36.892682 0.000000
255 1 14.910000 38.122438 0.000000
256 1 16.330000 38.122438 0.000000
257 1 17.040000 0.000000 0.000000
258 1 18.460000 0.000000 0.000000
259 1 19.170000 1.229756 0.000000
260 1 20.590000 1.229756 0.000000
261 1 17.040000 2.459512 0.000000
262 1 18.460000 2.459512 0.000000
263 1 19.170000 3.689268 0.000000
264 1 20.590000 3.689268 0.000000
265 1 17.040000 4.919024 0.000000
266 1 18.460000 4.919024 0.000000
267 1 19.170000 6.148780 0.000000
268 1 20.590000 6.148780 0.000000
269 1 17.040000 7.378536 0.000000
270 1 18.460000 7.378536 0.000000
271 1 19.170000 8.608293 0.000000
272 1 20.590000 8.608293 0.000000
273 1 17.040000 9.838049 0.000000
274 1 18.460000 9.838049 0.000000
275 1 19.170000 11.067805 0.000000
276 1 20.590000 11.067805 0.000000
277 1 17.040000 12.297561 0.000000
278 1 18.460000 12.297561 0.000000
279 1 19.170000 13.527317 0.000000
280 1 20.590000 13.527317 0.000000
281 1 17.040000 14.757073 0.000000
282 1 18.460000 14.757073 0.000000
283 1 19.170000 15.986829 0.000000
284 1 20.590000 15.986829 0.000000
285 1 17.040000 17.216585 0.000000
286 1 18.460000 17.216585 0.000000
287 1 19.170000 18.446341 0.000000
288 1 20.590000 18.446341 0.000000
289 1 17.040000 19.676097 0.000000
290 1 18.460000 19.676097 0.000000
291 1 19.170000 20.905853 0.000000
292 1 20.590000 20.905853 0.000000
293 1 17.040000 22.135609 0.000000
294 1 18.460000 22.135609 0.000000
295 1 19.170000 23.365365 0.000000
296 1 20.590000 23.365365 0.000000
297 1 17.040000 24.595121 0.000000
298 1 18.460000 24.595121 0.000000
299 1 19.170000 25.824878 0.000000
300 1 20.590000 25.824878 0.000000
301 1 17.040000 27.054634 0.000000
302 1 18.460000 27.054634 0.000000
303 1 19.170000 28.284390 0.000000
304 1 20.590000 28.284390 0.000000
305 1 17.040000 29.514146 0.000000
306 1 18.460000 29.514146 0.000000
307 1 19.170000 30.743902 0.000000
308 1 20.590000 30.743902 0.000000
309 1 17.040000 31.973658 0.000000
310 1 18.460000 31.973658 0.000000
311 1 19.170000 33.203414 0.000000
312 1 20.590000 33.203414 0.000000
313 1 17.040000 34.433170 0.000000
314 1 18.460000 34.433170 0.000000
315 1 19.170000 35.662926 0.000000
316 1 20.590000 35.662926 0.000000
317 1 17.040000 36.892682 0.000000
318 1 18.460000 36.892682 0.000000
319 1 19.170000 38.122438 0.000000
320 1 20.590000 38.122438 0.000000
321 1 21.300000 0.000000 0.000000
322 1 22.720000 0.000000 0.000000
323 1 23.430000 1.229756 0.000000
324 1 24.850000 1.229756 0.000000
325 1 21.300000 2.459512 0.000000
326 1 22.720000 2.459512 0.000000
327 1 23.430000 3.689268 0.000000
328 1 24.850000 3.689268 0.000000
329 1 21.300000 4.919024 0.000000
330 1 22.720000 4.919024 0.000000
331 1 23.430000 6.148780 0.000000
332 1 24.850000 6.148780 0.000000
333 1 21.300000 7.378536 0.000000
334 1 22.720000 7.378536 0.000000
335 1 23.430000 8.608293 0.000000
336 1 24.850000 8.608293 0.000000
337 1 21.300000 9.838049 0.000000
338 1 22.720000 9.838049 0.000000
339 1 23.430000 11.067805 0.000000
340 1 24.850000 11.067805 0.000000
341 1 21.300000 12.297561 0.000000
342 1 22.720000 12.297561 0.000000
343 1 23.430000 13.527317 0.000000
344 1 24.850000 13.527317 0.000000
345 1 21.300000 14.757073 0.000000
346 1 22.720000 14.757073 0.000000
347 1 23.430000 15.986829 0.000000
348 1 24.850000 15.986829 0.000000
349 1 21.300000 17.216585 0.000000
350 1 22.720000 17.216585 0.000000
351 1 23.430000 18.446341 0.000000
352 1 24.850000 18.446341 0.000000
353 1 21.300000 19.676097 0.000000
354 1 22.720000 19.676097 0.000000
355 1 23.430000 20.905853 0.000000
356 1 24.850000 20.905853 0.000000
357 1 21.300000 22.135609 0.000000
358 1 22.720000 22.135609 0.000000
359 1 23.430000 23.365365 0.000000
360 1 24.850000 23.365365 0.000000
361 1 21.300000 24.595121 0.000000
362 1 22.720000 24.595121 0.000000
363 1 23.430000 25.824878 0.000000
364 1 24.850000 25.824878 0.000000
365 1 21.300000 27.054634 0.000000
366 1 22.720000 27.054634 0.000000
367 1 23.430000 28.284390 0.000000
368 1 24.850000 28.284390 0.000000
369 1 21.300000 29.514146 0.000000
370 1 22.720000 29.514146 0.000000
371 1 23.430000 30.743902 0.000000
372 1 24.850000 30.743902 0.000000
373 1 21.300000 31.973658 0.000000
374 1 22.720000 31.973658 0.000000
375 1 23.430000 33.203414 0.000000
376 1 24.850000 33.203414 0.000000
377 1 21.300000 34.433170 0.000000
378 1 22.720000 34.433170 0.000000
379 1 23.430000 35.662926 0.000000
380 1 24.850000 35.662926 0.000000
381 1 21.300000 36.892682 0.000000
382 1 22.720000 36.892682 0.000000
383 1 23.430000 38.122438 0.000000
384 1 24.850000 38.122438 0.000000
385 1 25.560000 0.000000 0.000000
386 1 26.980000 0.000000 0.000000
387 1 27.690000 1.229756 0.000000
388 1 29.110000 1.229756 0.000000
389 1 25.560000 2.459512 0.000000
390 1 26.980000 2.459512 0.000000
391 1 27.690000 3.689268 0.000000
392 1 29.110000 3.689268 0.000000
393 1 25.560000 4.919024 0.000000
394 1 26.980000 4.919024 0.000000
395 1 27.690000 6.148780 0.000000
396 1 29.110000 6.148780 0.000000
397 1 25.560000 7.378536 0.000000
398 1 26.980000 7.378536 0.000000
399 1 27.690000 8.608293 0.000000
400 1 29.110000 8.608293 0.000000
401 1 25.560000 9.838049 0.000000
402 1 26.980000 9.838049 0.000000
403 1 27.690000 11.067805 0.000000
404 1 29.110000 11.067805 0.000000
405 1 25.560000 12.297561 0.000000
406 1 26.980000 12.297561 0.000000
407 1 27.690000 13.527317 0.000000
408 1 29.110000 13.527317 0.000000
409 1 25.560000 14.757073 0.000000
410 1 26.980000 14.757073 0.000000
411 1 27.690000 15.986829 0.000000
412 1 29.110000 15.986829 0.000000
413 1 25.560000 17.216585 0.000000
414 1 26.980000 17.216585 0.000000
415 1 27.690000 18.446341 0.000000
416 1 29.110000 18.446341 0.000000
417 1 25.560000 19.676097 0.000000
418 1 26.980000 19.676097 0.000000
419 1 27.690000 20.905853 0.000000
420 1 29.110000 20.905853 0.000000
421 1 25.560000 22.135609 0.000000
422 1 26.980000 22.135609 0.000000
423 1 27.690000 23.365365 0.000000
424 1 29.110000 23.365365 0.000000
425 1 25.560000 24.595121 0.000000
426 1 26.980000 24.595121 0.000000
427 1 27.690000 25.824878 0.000000
428 1 29.110000 25.824878 0.000000
429 1 25.560000 27.054634 0.000000
430 1 26.980000 27.054634 0.000000
431 1 27.690000 28.284390 0.000000
432 1 29.110000 28.284390 0.000000
433 1 25.560000 29.514146 0.000000
434 1 26.980000 29.514146 0.000000
435 1 27.690000 30.743902 0.000000
436 1 29.110000 30.743902 0.000000
437 1 25.560000 31.973658 0.000000
438 1 26.980000 31.973658 0.000000
439 1 27.690000 33.203414 0.000000
440 1 29.110000 33.203414 0.000000
441 1 25.560000 34.433170 0.000000
442 1 26.980000 34.433170 0.000000
443 1 27.690000 35.662926 0.000000
444 1 29.110000 35.662926 0.000000
445 1 25.560000 36.892682 0.000000
446 1 26.980000 36.892682 0.000000
447 1 27.690000 38.122438 0.000000
448 1 29.110000 38.122438 0.000000
449 1 29.820000 0.000000 0.000000
450 1 31.240000 0.000000 0.000000
451 1 31.950000 1.229756 0.000000
452 1 33.370000 1.229756 0.000000
453 1 29.820000 2.459512 0.000000
454 1 31.240000 2.459512 0.000000
455 1 31.950000 3.689268 0.000000
456 1 33.370000 3.689268 0.000000
457 1 29.820000 4.919024 0.000000
458 1 31.240000 4.919024 0.000000
459 1 31.950000 6.148780 0.000000
460 1 33.370000 6.148780 0.000000
461 1 29.820000 7.378536 0.000000
462 1 31.240000 7.378536 0.000000
463 1 31.950000 8.608293 0.000000
464 1 33.370000 8.608293 0.000000
465 1 29.820000 9.838049 0.000000
466 1 31.240000 9.838049 0.000000
467 1 31.950000 11.067805 0.000000
468 1 33.370000 11.067805 0.000000
469 1 29.820000 12.297561 0.000000
470 1 31.240000 12.297561 0.000000
471 1 31.950000 13.527317 0.000000
472 1 33.370000 13.527317 0.000000
473 1 29.820000 14.757073 0.000000
474 1 31.240000 14.757073 0.000000
475 1 31.950000 15.986829 0.000000
476 1 33.370000 15.986829 0.000000
477 1 29.820000 17.216585 0.000000
478 1 31.240000 17.216585 0.000000
479 1 31.950000 18.446341 0.000000
480 1 34.339878 18.706219 0.000000
481 1 29.820000 19.676097 0.000000
482 1 31.240000 19.676097 0.000000
483 1 31.950000 20.905853 0.000000
484 1 33.370000 20.905853 0.000000
485 1 29.820000 22.135609 0.000000
486 1 31.240000 22.135609 0.000000
487 1 31.950000 23.365365 0.000000
488 1 33.370000 23.365365 0.000000
489 1 29.820000 24.595121 0.000000
490 1 31.240000 24.595121 0.000000
491 1 31.950000 25.824878 0.000000
492 1 33.370000 25.824878 0.000000
493 1 29.820000 27.054634 0.000000
494 1 31.240000 27.054634 0.000000
495 1 31.950000 28.284390 0.000000
496 1 33.370000 28.284390 0.000000
497 1 29.820000 29.514146 0.000000
498 1 31.240000 29.514146 0.000000
499 1 31.950000 30.743902 0.000000
500 1 33.370000 30.743902 0.000000
501 1 29.820000 31.973658 0.000000
502 1 31.240000 31.973658 0.000000
503 1 31.950000 33.203414 0.000000
504 1 33.370000 33.203414 0.000000
505 1 29.820000 34.433170 0.000000
506 1 31.240000 34.433170 0.000000
507 1 31.950000 35.662926 0.000000
508 1 33.370000 35.662926 0.000000
509 1 29.820000 36.892682 0.000000
510 1 31.240000 36.892682 0.000000
511 1 31.950000 38.122438 0.000000
512 1 33.370000 38.122438 0.000000
513 1 34.080000 0.000000 0.000000
514 1 35.500000 0.000000 0.000000
515 1 36.210000 1.229756 0.000000
516 1 37.630000 1.229756 0.000000
517 1 34.080000 2.459512 0.000000
518 1 35.500000 2.459512 0.000000
519 1 36.210000 3.689268 0.000000
520 1 37.630000 3.689268 0.000000
521 1 34.080000 4.919024 0.000000
522 1 35.500000 4.919024 0.000000
523 1 36.210000 6.148780 0.000000
524 1 37.630000 6.148780 0.000000
525 1 34.080000 7.378536 0.000000
526 1 35.500000 7.378536 0.000000
527 1 36.210000 8.608293 0.000000
528 1 37.630000 8.608293 0.000000
529 1 34.080000 9.838049 0.000000
530 1 35.500000 9.838049 0.000000
531 1 36.210000 11.067805 0.000000
532 1 37.630000 11.067805 0.000000
533 1 34.080000 12.297561 0.000000
534 1 35.500000 12.297561 0.000000
535 1 36.210000 13.527317 0.000000
536 1 37.630000 13.527317 0.000000
537 1 34.080000 14.757073 0.000000
538 1 35.500000 14.757073 0.000000
539 1 36.210000 15.986829 0.000000
540 1 37.630000 15.986829 0.000000
541 1 34.080000 17.216585 0.000000
542 1 35.500000 17.216585 0.000000
543 1 36.210000 18.446341 0.000000
544 1 37.630000 18.446341 0.000000
545 1 33.110122 19.416219 0.000000
546 1 35.500000 19.676097 0.000000
547 1 36.210000 20.905853 0.000000
548 1 37.630000 20.905853 0.000000
549 1 34.080000 22.135609 0.000000
550 1 35.500000 22.135609 0.000000
551 1 36.210000 23.365365 0.000000
552 1 37.630000 23.365365 0.000000
553 1 34.080000 24.595121 0.000000
554 1 35.500000 24.595121 0.000000
555 1 36.210000 25.824878 0.000000
556 1 37.630000 25.824878 0.000000
557 1 34.080000 27.054634 0.000000
558 1 35.500000 27.054634 0.000000
559 1 36.210000 28.284390 0.000000
560 1 37.630000 28.284390 0.000000
561 1 34.080000 29.514146 0.000000
562 1 35.500000 29.514146 0.000000
563 1 36.210000 30.743902 0.000000
564 1 37.630000 30.743902 0.000000
565 1 34.080000 31.973658 0.000000
566 1 35.500000 31.973658 0.000000
567 1 36.210000 33.203414 0.000000
568 1 37.630000 33.203414 0.000000
569 1 34.080000 34.433170 0.000000
570 1 35.500000 34.433170 0.000000
571 1 36.210000 35.662926 0.000000
572 1 37.630000 35.662926 0.000000
573 1 34.080000 36.892682 0.000000
574 1 35.500000 36.892682 0.000000
575 1 36.210000 38.122438 0.000000
576 1 37.630000 38.122438 0.000000
577 1 38.340000 0.000000 0.000000
578 1 39.760000 0.000000 0.000000
579 1 40.470000 1.229756 0.000000
580 1 41.890000 1.229756 0.000000
581 1 38.340000 2.459512 0.000000
582 1 39.760000 2.459512 0.000000
583 1 40.470000 3.689268 0.000000
584 1 41.890000 3.689268 0.000000
585 1 38.340000 4.919024 0.000000
586 1 39.760000 4.919024 0.000000
587 1 40.470000 6.148780 0.000000
588 1 41.890000 6.148780 0.000000
589 1 38.340000 7.378536 0.000000
590 1 39.760000 7.378536 0.000000
591 1 40.470000 8.608293 0.000000
592 1 41.890000 8.608293 0.000000
593 1 38.340000 9.838049 0.000000
594 1 39.760000 9.838049 0.000000
595 1 40.470000 11.067805 0.000000
596 1 41.890000 11.067805 0.000000
597 1 38.340000 12.297561 0.000000
598 1 39.760000 12.297561 0.000000
599 1 40.470000 13.527317 0.000000
600 1 41.890000 13.527317 0.000000
601 1 38.340000 14.757073 0.000000
602 1 39.760000 14.757073 0.000000
603 1 40.470000 15.986829 0.000000
604 1 41.890000 15.986829 0.000000
605 1 38.340000 17.216585 0.000000
606 1 39.760000 17.216585 0.000000
607 1 40.470000 18.446341 0.000000
608 1 41.890000 18.446341 0.000000
609 1 38.340000 19.676097 0.000000
610 1 39.760000 19.676097 0.000000
611 1 40.470000 20.905853 0.000000
612 1 41.890000 20.905853 0.000000
613 1 38.340000 22.135609 0.000000
614 1 39.760000 22.135609 0.000000
615 1 40.470000 23.365365 0.000000
616 1 41.890000 23.365365 0.000000
617 1 38.340000 24.595121 0.000000
618 1 39.760000 24.595121 0.000000
619 1 40.470000 25.824878 0.000000
620 1 41.890000 25.824878 0.000000
621 1 38.340000 27.054634 0.000000
622 1 39.760000 27.054634 0.000000
623 1 40.470000 28.284390 0.000000
624 1 41.890000 28.284390 0.000000
625 1 38.340000 29.514146 0.000000
626 1 39.760000 29.514146 0.000000
627 1 40.470000 30.743902 0.000000
628 1 41.890000 30.743902 0.000000
629 1 38.340000 31.973658 0.000000
630 1 39.760000 31.973658 0.000000
631 1 40.470000 33.203414 0.000000
632 1 41.890000 33.203414 0.000000
633 1 38.340000 34.433170 0.000000
634 1 39.760000 34.433170 0.000000
635 1 40.470000 35.662926 0.000000
636 1 41.890000 35.662926 0.000000
637 1 38.340000 36.892682 0.000000
638 1 39.760000 36.892682 0.000000
639 1 40.470000 38.122438 0.000000
640 1 41.890000 38.122438 0.000000
641 1 42.600000 0.000000 0.000000
642 1 44.020000 0.000000 0.000000
643 1 44.730000 1.229756 0.000000
644 1 46.150000 1.229756 0.000000
645 1 42.600000 2.459512 0.000000
646 1 44.020000 2.459512 0.000000
647 1 44.730000 3.689268 0.000000
648 1 46.150000 3.689268 0.000000
649 1 42.600000 4.919024 0.000000
650 1 44.020000 4.919024 0.000000
651 1 44.730000 6.148780 0.000000
652 1 46.150000 6.148780 0.000000
653 1 42.600000 7.378536 0.000000
654 1 44.020000 7.378536 0.000000
655 1 44.730000 8.608293 0.000000
656 1 46.150000 8.608293 0.000000
657 1 42.600000 9.838049 0.000000
658 1 44.020000 9.838049 0.000000
659 1 44.730000 11.067805 0.000000
660 1 46.150000 11.067805 0.000000
661 1 42.600000 12.297561 0.000000
662 1 44.020000 12.297561 0.000000
663 1 44.730000 13.527317 0.000000
664 1 46.150000 13.527317 0.000000
665 1 42.600000 14.757073 0.000000
666 1 44.020000 14.757073 0.000000
667 1 44.730000 15.986829 0.000000
668 1 46.150000 15.986829 0.000000
669 1 42.600000 17.216585 0.000000
670 1 44.020000 17.216585 0.000000
671 1 44.730000 18.446341 0.000000
672 1 46.150000 18.446341 0.000000
673 1 42.600000 19.676097 0.000000
674 1 44.020000 19.676097 0.000000
675 1 44.730000 20.905853 0.000000
676 1 46.150000 20.905853 0.000000
677 1 42.600000 22.135609 0.000000
678 1 44.020000 22.135609 0.000000
679 1 44.730000 23.365365 0.000000
680 1 46.150000 23.365365 0.000000
681 1 42.600000 24.595121 0.000000
682 1 44.020000 24.595121 0.000000
683 1 44.730000 25.824878 0.000000
684 1 46.150000 25.824878 0.000000
685 1 42.600000 27.054634 0.000000
686 1 44.020000 27.054634 0.000000
687 1 44.730000 28.284390 0.000000
688 1 46.150000 28.284390 0.000000
689 1 42.600000 29.514146 0.000000
690 1 44.020000 29.514146 0.000000
691 1 44.730000 30.743902 0.000000
692 1 46.150000 30.743902 0.000000
693 1 42.600000 31.973658 0.000000
694 1 44.020000 31.973658 0.000000
695 1 44.730000 33.203414 0.000000
696 1 46.150000 33.203414 0.000000
697 1 42.600000 34.433170 0.000000
698 1 44.020000 34.433170 0.000000
699 1 44.730000 35.662926 0.000000
700 1 46.150000 35.662926 0.000000
701 1 42.600000 36.892682 0.000000
702 1 44.020000 36.892682 0.000000
703 1 44.730000 38.122438 0.000000
704 1 46.150000 38.122438 0.000000
705 1 46.860000 0.000000 0.000000
706 1 48.280000 0.000000 0.000000
707 1 48.990000 1.229756 0.000000
708 1 50.410000 1.229756 0.000000
709 1 46.860000 2.459512 0.000000
710 1 48.280000 2.459512 0.000000
711 1 48.990000 3.689268 0.000000
712 1 50.410000 3.689268 0.000000
713 1 46.860000 4.919024 0.000000
714 1 48.280000 4.919024 0.000000
715 1 48.990000 6.148780 0.000000
716 1 50.410000 6.148780 0.000000
717 1 46.860000 7.378536 0.000000
718 1 48.280000 7.378536 0.000000
719 1 48.990000 8.608293 0.000000
720 1 50.410000 8.608293 0.000000
721 1 46.860000 9.838049 0.000000
722 1 48.280000 9.838049 0.000000
723 1 48.990000 11.067805 0.000000
724 1 50.410000 11.067805 0.000000
725 1 46.860000 12.297561 0.000000
726 1 48.280000 12.297561 0.000000
727 1 48.990000 13.527317 0.000000
728 1 50.410000 13.527317 0.000000
729 1 46.860000 14.757073 0.000000
730 1 48.280000 14.757073 0.000000
731 1 48.990000 15.986829 0.000000
732 1 50.410000 15.986829 0.000000
733 1 46.860000 17.216585 0.000000
734 1 48.280000 17.216585 0.000000
735 1 48.990000 18.446341 0.000000
736 1 50.410000 18.446341 0.000000
737 1 46.860000 19.676097 0.000000
738 1 48.280000 19.676097 0.000000
739 1 48.990000 20.905853 0.000000
740 1 50.410000 20.905853 0.000000
741 1 46.860000 22.135609 0.000000
742 1 48.280000 22.135609 0.000000
743 1 48.990000 23.365365 0.000000
744 1 50.410000 23.365365 0.000000
745 1 46.860000 24.595121 0.000000
746 1 48.280000 24.595121 0.000000
747 1 48.990000 25.824878 0.000000
748 1 50.410000 25.824878 0.000000
749 1 46.860000 27.054634 0.000000
750 1 48.280000 27.054634 0.000000
751 1 48.990000 28.284390 0.000000
752 1 50.410000 28.284390 0.000000
753 1 46.860000 29.514146 0.000000
754 1 48.280000 29.514146 0.000000
755 1 48.990000 30.743902 0.000000
756 1 50.410000 30.743902 0.000000
757 1 46.860000 31.973658 0.000000
758 1 48.280000 31.973658 0.000000
759 1 48.990000 33.203414 0.000000
760 1 50.410000 33.203414 0.000000
761 1 46.860000 34.433170 0.000000
762 1 48.280000 34.433170 0.000000
763 1 48.990000 35.662926 0.000000
764 1 50.410000 35.662926 0.000000
765 1 46.860000 36.892682 0.000000
766 1 48.280000 36.892682 0.000000
767 1 48.990000 38.122438 0.000000
768 1 50.410000 38.122438 0.000000
769 1 51.120000 0.000000 0.000000
770 1 52.540000 0.000000 0.000000
771 1 53.250000 1.229756 0.000000
772 1 54.670000 1.229756 0.000000
773 1 51.120000 2.459512 0.000000
774 1 52.540000 2.459512 0.000000
775 1 53.250000 3.689268 0.000000
776 1 54.670000 3.689268 0.000000
777 1 51.120000 4.919024 0.000000
778 1 52.540000 4.919024 0.000000
779 1 53.250000 6.148780 0.000000
780 1 54.670000 6.148780 0.000000
781 1 51.120000 7.378536 0.000000
782 1 52.540000 7.378536 0.000000
783 1 53.250000 8.608293 0.000000
784 1 54.670000 8.608293 0.000000
785 1 51.120000 9.838049 0.000000
786 1 52.540000 9.838049 0.000000
787 1 53.250000 11.067805 0.000000
788 1 54.670000 11.067805 0.000000
789 1 51.120000 12.297561 0.000000
790 1 52.540000 12.297561 0.000000
791 1 53.250000 13.527317 0.000000
792 1 54.670000 13.527317 0.000000
793 1 51.120000 14.757073 0.000000
794 1 52.540000 14.757073 0.000000
795 1 53.250000 15.986829 0.000000
796 1 54.670000 15.986829 0.000000
797 1 51.120000 17.216585 0.000000
798 1 52.540000 17.216585 0.000000
799 1 53.250000 18.446341 0.000000
800 1 54.670000 18.446341 0.000000
801 1 51.120000 19.676097 0.000000
802 1 52.540000 19.676097 0.000000
803 1 53.250000 20.905853 0.000000
804 1 54.670000 20.905853 0.000000
805 1 51.120000 22.135609 0.000000
806 1 52.540000 22.135609 0.000000
807 1 53.250000 23.365365 0.000000
808 1 54.670000 23.365365 0.000000
809 1 51.120000 24.595121 0.000000
810 1 52.540000 24.595121 0.000000
811 1 53.250000 25.824878 0.000000
812 1 54.670000 25.824878 0.000000
813 1 51.120000 27.054634 0.000000
814 1 52.540000 27.054634 0.000000
815 1 53.250000 28.284390 0.000000
816 1 54.670000 28.284390 0.000000
817 1 51.120000 29.514146 0.000000
818 1 52.540000 29.514146 0.000000
819 1 53.250000 30.743902 0.000000
820 1 54.670000 30.743902 0.000000
821 1 51.120000 31.973658 0.000000
822 1 52.540000 31.973658 0.000000
823 1 53.250000 33.203414 0.000000
824 1 54.670000 33.203414 0.000000
825 1 51.120000 34.433170 0.000000
826 1 52.540000 34.433170 0.000000
827 1 53.250000 35.662926 0.000000
828 1 54.670000 35.662926 0.000000
829 1 51.120000 36.892682 0.000000
830 1 52.540000 36.892682 0.000000
831 1 53.250000 38.122438 0.000000
832 1 54.670000 38.122438 0.000000
833 1 55.380000 0.000000 0.000000
834 1 56.800000 0.000000 0.000000
835 1 57.510000 1.229756 0.000000
836 1 58.930000 1.229756 0.000000
837 1 55.380000 2.459512 0.000000
838 1 56.800000 2.459512 0.000000
839 1 57.510000 3.689268 0.000000
840 1 58.930000 3.689268 0.000000
841 1 55.380000 4.919024 0.000000
842 1 56.800000 4.919024 0.000000
843 1 57.510000 6.148780 0.000000
844 1 58.930000 6.148780 0.000000
845 1 55.380000 7.378536 0.000000
846 1 56.800000 7.378536 0.000000
847 1 57.510000 8.608293 0.000000
848 1 58.930000 8.608293 0.000000
849 1 55.380000 9.838049 0.000000
850 1 56.800000 9.838049 0.000000
851 1 57.510000 11.067805 0.000000
852 1 58.930000 11.067805 0.000000
853 1 55.380000 12.297561 0.000000
854 1 56.800000 12.297561 0.000000
855 1 57.510000 13.527317 0.000000
856 1 58.930000 13.527317 0.000000
857 1 55.380000 14.757073 0.000000
858 1 56.800000 14.757073 0.000000
859 1 57.510000 15.986829 0.000000
860 1 58.930000 15.986829 0.000000
861 1 55.380000 17.216585 0.000000
862 1 56.800000 17.216585 0.000000
863 1 57.510000 18.446341 0.000000
864 1 58.930000 18.446341 0.000000
865 1 55.380000 19.676097 0.000000
866 1 56.800000 19.676097 0.000000
867 1 57.510000 20.905853 0.000000
868 1 58.930000 20.905853 0.000000
869 1 55.380000 22.135609 0.000000
870 1 56.800000 22.135609 0.000000
871 1 57.510000 23.365365 0.000000
872 1 58.930000 23.365365 0.000000
873 1 55.380000 24.595121 0.000000
874 1 56.800000 24.595121 0.000000
875 1 57.510000 25.824878 0.000000
876 1 58.930000 25.824878 0.000000
877 1 55.380000 27.054634 0.000000
878 1 56.800000 27.054634 0.000000
879 1 57.510000 28.284390 0.000000
880 1 58.930000 28.284390 0.000000
881 1 55.380000 29.514146 0.000000
882 1 56.800000 29.514146 0.000000
883 1 57.510000 30.743902 0.000000
884 1 58.930000 30.743902 0.000000
885 1 55.380000 31.973658 0.000000
886 1 56.800000 31.973658 0.000000
887 1 57.510000 33.203414 0.000000
888 1 58.930000 33.203414 0.000000
889 1 55.380000 34.433170 0.000000
890 1 56.800000 34.433170 0.000000
891 1 57.510000 35.662926 0.000000
892 1 58.930000 35.662926 0.000000
893 1 55.380000 36.892682 0.000000
894 1 56.800000 36.892682 0.000000
895 1 57.510000 38.122438 0.000000
896 1 58.930000 38.122438 0.000000
897 1 59.640000 0.000000 0.000000
898 1 61.060000 0.000000 0.000000
899 1 61.770000 1.229756 0.000000
900 1 63.190000 1.229756 0.000000
901 1 59.640000 2.459512 0.000000
902 1 61.060000 2.459512 0.000000
903 1 61.770000 3.689268 0.000000
904 1 63.190000 3.689268 0.000000
905 1 59.640000 4.919024 0.000000
906 1 61.060000 4.919024 0.000000
907 1 61.770000 6.148780 0.000000
908 1 63.190000 6.148780 0.000000
909 1 59.640000 7.378536 0.000000
910 1 61.060000 7.378536 0.000000
911 1 61.770000 8.608293 0.000000
912 1 63.190000 8.608293 0.000000
913 1 59.640000 9.838049 0.000000
914 1 61.060000 9.838049 0.000000
915 1 61.770000 11.067805 0.000000
916 1 63.190000 11.067805 0.000000
917 1 59.640000 12.297561 0.000000
918 1 61.060000 12.297561 0.000000
919 1 61.770000 13.527317 0.000000
920 1 63.190000 13.527317 0.000000
921 1 59.640000 14.757073 0.000000
922 1 61.060000 14.757073 0.000000
923 1 61.770000 15.986829 0.000000
924 1 63.190000 15.986829 0.000000
925 1 59.640000 17.216585 0.000000
926 1 61.060000 17.216585 0.000000
927 1 61.770000 18.446341 0.000000
928 1 63.190000 18.446341 0.000000
929 1 59.640000 19.676097 0.000000
930 1 61.060000 19.676097 0.000000
931 1 61.770000 20.905853 0.000000
932 1 63.190000 20.905853 0.000000
933 1 59.640000 22.135609 0.000000
934 1 61.060000 22.135609 0.000000
935 1 61.770000 23.365365 0.000000
936 1 63.190000 23.365365 0.000000
937 1 59.640000 24.595121 0.000000
938 1 61.060000 24.595121 0.000000
939 1 61.770000 25.824878 0.000000
940 1 63.190000 25.824878 0.000000
941 1 59.640000 27.054634 0.000000
942 1 61.060000 27.054634 0.000000
943 1 61.770000 28.284390 0.000000
944 1 63.190000 28.284390 0.000000
945 1 59.640000 29.514146 0.000000
946 1 61.060000 29.514146 0.000000
947 1 61.770000 30.743902 0.000000
948 1 63.190000 30.743902 0.000000
949 1 59.640000 31.973658 0.000000
950 1 61.060000 31.973658 0.000000
951 1 61.770000 33.203414 0.000000
952 1 63.190000 33.203414 0.000000
953 1 59.640000 34.433170 0.000000
954 1 61.060000 34.433170 0.000000
955 1 61.770000 35.662926 0.000000
956 1 63.190000 35.662926 0.000000
957 1 59.640000 36.892682 0.000000
958 1 61.060000 36.892682 0.000000
959 1 61.770000 38.122438 0.000000
960 1 63.190000 38.122438 0.000000
961 1 63.900000 0.000000 0.000000
962 1 65.320000 0.000000 0.000000
963 1 66.030000 1.229756 0.000000
964 1 67.450000 1.229756 0.000000
965 1 63.900000 2.459512 0.000000
966 1 65.320000 2.459512 0.000000
967 1 66.030000 3.689268 0.000000
968 1 67.450000 3.689268 0.000000
969 1 63.900000 4.919024 0.000000
970 1 65.320000 4.919024 0.000000
971 1 66.030000 6.148780 0.000000
972 1 67.450000 6.148780 0.000000
973 1 63.900000 7.378536 0.000000
974 1 65.320000 7.378536 0.000000
975 1 66.030000 8.608293 0.000000
976 1 67.450000 8.608293 0.000000
977 1 63.900000 9.838049 0.000000
978 1 65.320000 9.838049 0.000000
979 1 66.030000 11.067805 0.000000
980 1 67.450000 11.067805 0.000000
981 1 63.900000 12.297561 0.000000
982 1 65.320000 12.297561 0.000000
983 1 66.030000 13.527317 0.000000
984 1 67.450000 13.527317 0.000000
985 1 63.900000 14.757073 0.000000
986 1 65.320000 14.757073 0.000000
987 1 66.030000 15.986829 0.000000
988 1 67.450000 15.986829 0.000000
989 1 63.900000 17.216585 0.000000
990 1 65.320000 17.216585 0.000000
991 1 66.030000 18.446341 0.000000
992 1 67.450000 18.446341 0.000000
993 1 63.900000 19.676097 0.000000
994 1 65.320000 19.676097 0.000000
995 1 66.030000 20.905853 0.000000
996 1 67.450000 20.905853 0.000000
997 1 63.900000 22.135609 0.000000
998 1 65.320000 22.135609 0.000000
999 1 66.030000 23.365365 0.000000
1000 1 67.450000 23.365365 0.000000
1001 1 63.900000 24.595121 0.000000
1002 1 65.320000 24.595121 0.000000
1003 1 66.030000 25.824878 0.000000
1004 1 67.450000 25.824878 0.000000
1005 1 63.900000 27.054634 0.000000
1006 1 65.320000 27.054634 0.000000
1007 1 66.030000 28.284390 0.000000
1008 1 67.450000 28.284390 0.000000
1009 1 63.900000 29.514146 0.000000
1010 1 65.320000 29.514146 0.000000
1011 1 66.030000 30.743902 0.000000
1012 1 67.450000 30.743902 0.000000
1013 1 63.900000 31.973658 0.000000
1014 1 65.320000 31.973658 0.000000
1015 1 66.030000 33.203414 0.000000
1016 1 67.450000 33.203414 0.000000
1017 1 63.900000 34.433170 0.000000
1018 1 65.320000 34.433170 0.000000
1019 1 66.030000 35.662926 0.000000
1020 1 67.450000 35.662926 0.000000
1021 1 63.900000 36.892682 0.000000
1022 1 65.320000 36.892682 0.000000
1023 1 66.030000 38.122438 0.000000
1024 1 67.450000 38.122438 0.000000
