# Route A case — graphene (AIREBO)

862 atoms
1 atom types

0.000000 76.680000 xlo xhi
0.000000 29.514146 ylo yhi
-5.000000 5.000000 zlo zhi

Masses

1 12.011

Atoms  # atomic

1 1 0.572903 0.798849 0.000000
2 1 1.991552 0.860789 0.000000
3 1 2.647235 2.120344 0.000000
4 1 4.065883 2.182284 0.000000
5 1 0.465621 3.256021 0.000000
6 1 1.884269 3.317960 0.000000
7 1 2.539952 4.577516 0.000000
8 1 3.958601 4.639455 0.000000
9 1 0.358338 5.713192 0.000000
10 1 1.776987 5.775131 0.000000
11 1 2.432670 7.034687 0.000000
12 1 3.851318 7.096626 0.000000
13 1 0.251056 8.170363 0.000000
14 1 1.669704 8.232303 0.000000
15 1 2.325388 9.491858 0.000000
16 1 3.744036 9.553798 0.000000
17 1 0.143774 10.627534 0.000000
18 1 1.562422 10.689474 0.000000
19 1 2.218105 11.949029 0.000000
20 1 3.636754 12.010969 0.000000
21 1 0.036491 13.084706 0.000000
22 1 1.455140 13.146645 0.000000
23 1 2.110823 14.406200 0.000000
24 1 3.529471 14.468140 0.000000
25 1 1.347857 15.603816 0.000000
26 1 2.003540 16.863372 0.000000
27 1 3.422189 16.925311 0.000000
28 1 1.240575 18.060988 0.000000
29 1 1.896258 19.320543 0.000000
30 1 3.314906 19.382482 0.000000
31 1 1.133292 20.518159 0.000000
32 1 1.788975 21.777714 0.000000
33 1 3.207624 21.839654 0.000000
34 1 1.026010 22.975330 0.000000
35 1 1.681693 24.234885 0.000000
36 1 3.100342 24.296825 0.000000
37 1 0.918728 25.432501 0.000000
38 1 1.574411 26.692057 0.000000
39 1 2.993059 26.753996 0.000000
40 1 0.811445 27.889673 0.000000
41 1 1.467128 29.149228 0.000000
42 1 2.885777 29.211167 0.000000
43 1 4.828849 0.984668 0.000000
44 1 6.247497 1.046608 0.000000
45 1 6.903180 2.306163 0.000000
46 1 8.321829 2.368102 0.000000
47 1 4.721566 3.441839 0.000000
48 1 6.140215 3.503779 0.000000
49 1 6.795898 4.763334 0.000000
50 1 8.214546 4.825274 0.000000
51 1 4.614284 5.899010 0.000000
52 1 6.032932 5.960950 0.000000
53 1 6.688615 7.220505 0.000000
54 1 8.107264 7.282445 0.000000
55 1 4.507001 8.356182 0.000000
56 1 5.925650 8.418121 0.000000
57 1 6.581333 9.677677 0.000000
58 1 7.999981 9.739616 0.000000
59 1 4.399719 10.813353 0.000000
60 1 5.818367 10.875292 0.000000
61 1 6.474051 12.134848 0.000000
62 1 7.892699 12.196787 0.000000
63 1 4.292437 13.270524 0.000000
64 1 5.711085 13.332464 0.000000
65 1 6.366768 14.592019 0.000000
66 1 7.785417 14.653959 0.000000
67 1 4.185154 15.727695 0.000000
68 1 5.603803 15.789635 0.000000
69 1 6.259486 17.049190 0.000000
70 1 7.678134 17.111130 0.000000
71 1 4.077872 18.184867 0.000000
72 1 5.496520 18.246806 0.000000
73 1 6.152203 19.506362 0.000000
74 1 7.570852 19.568301 0.000000
75 1 3.970589 20.642038 0.000000
76 1 5.389238 20.703977 0.000000
77 1 6.044921 21.963533 0.000000
78 1 7.463569 22.025472 0.000000
79 1 3.863307 23.099209 0.000000
80 1 5.281955 23.161149 0.000000
81 1 5.937638 24.420704 0.000000
82 1 7.356287 24.482644 0.000000
83 1 3.756025 25.556380 0.000000
84 1 5.174673 25.618320 0.000000
85 1 5.830356 26.877875 0.000000
86 1 7.249005 26.939815 0.000000
87 1 3.648742 28.013552 0.000000
88 1 5.067391 28.075491 0.000000
89 1 5.723074 29.335046 0.000000
90 1 7.141722 29.396986 0.000000
91 1 11.266408 0.034810 0.000000
92 1 12.685056 0.096750 0.000000
93 1 9.084794 1.170487 0.000000
94 1 10.503443 1.232426 0.000000
95 1 11.159126 2.491981 0.000000
96 1 12.577774 2.553921 0.000000
97 1 8.977512 3.627658 0.000000
98 1 10.396160 3.689597 0.000000
99 1 11.051843 4.949153 0.000000
100 1 12.470492 5.011092 0.000000
101 1 8.870229 6.084829 0.000000
102 1 10.288878 6.146769 0.000000
103 1 10.944561 7.406324 0.000000
104 1 12.363209 7.468263 0.000000
105 1 8.762947 8.542000 0.000000
106 1 10.181595 8.603940 0.000000
107 1 10.837278 9.863495 0.000000
108 1 12.255927 9.925435 0.000000
109 1 8.655664 10.999172 0.000000
110 1 10.074313 11.061111 0.000000
111 1 10.729996 12.320666 0.000000
112 1 12.148644 12.382606 0.000000
113 1 8.548382 13.456343 0.000000
114 1 9.967031 13.518282 0.000000
115 1 10.622714 14.777838 0.000000
116 1 12.041362 14.839777 0.000000
117 1 8.441100 15.913514 0.000000
118 1 9.859748 15.975454 0.000000
119 1 10.515431 17.235009 0.000000
120 1 11.934080 17.296948 0.000000
121 1 8.333817 18.370685 0.000000
122 1 9.752466 18.432625 0.000000
123 1 10.408149 19.692180 0.000000
124 1 11.826797 19.754120 0.000000
125 1 8.226535 20.827856 0.000000
126 1 9.645183 20.889796 0.000000
127 1 10.300866 22.149351 0.000000
128 1 11.719515 22.211291 0.000000
129 1 8.119252 23.285028 0.000000
130 1 9.537901 23.346967 0.000000
131 1 10.193584 24.606523 0.000000
132 1 11.612232 24.668462 0.000000
133 1 8.011970 25.742199 0.000000
134 1 9.430618 25.804138 0.000000
135 1 10.086301 27.063694 0.000000
136 1 11.504950 27.125633 0.000000
137 1 7.904688 28.199370 0.000000
138 1 9.323336 28.261310 0.000000
139 1 15.522353 0.220629 0.000000
140 1 16.941002 0.282568 0.000000
141 1 13.340740 1.356305 0.000000
142 1 14.759388 1.418245 0.000000
143 1 15.415071 2.677800 0.000000
144 1 16.833720 2.739740 0.000000
145 1 13.233457 3.813476 0.000000
146 1 14.652106 3.875416 0.000000
147 1 15.307789 5.134971 0.000000
148 1 16.726437 5.196911 0.000000
149 1 13.126175 6.270648 0.000000
150 1 14.544823 6.332587 0.000000
151 1 15.200506 7.592143 0.000000
152 1 16.619155 7.654082 0.000000
153 1 13.018892 8.727819 0.000000
154 1 14.437541 8.789758 0.000000
155 1 15.093224 10.049314 0.000000
156 1 16.511872 10.111253 0.000000
157 1 12.911610 11.184990 0.000000
158 1 14.330258 11.246930 0.000000
159 1 14.985941 12.506485 0.000000
160 1 16.404590 12.568425 0.000000
161 1 12.804327 13.642161 0.000000
162 1 14.222976 13.704101 0.000000
163 1 14.878659 14.963656 0.000000
164 1 16.297307 15.025596 0.000000
165 1 12.697045 16.099333 0.000000
166 1 14.115694 16.161272 0.000000
167 1 14.771377 17.420827 0.000000
168 1 16.190025 17.482767 0.000000
169 1 12.589763 18.556504 0.000000
170 1 14.008411 18.618443 0.000000
171 1 14.664094 19.877999 0.000000
172 1 16.082743 19.939938 0.000000
173 1 12.482480 21.013675 0.000000
174 1 13.901129 21.075615 0.000000
175 1 14.556812 22.335170 0.000000
176 1 15.975460 22.397109 0.000000
177 1 12.375198 23.470846 0.000000
178 1 13.793846 23.532786 0.000000
179 1 14.449529 24.792341 0.000000
180 1 15.868178 24.854281 0.000000
181 1 12.267915 25.928018 0.000000
182 1 13.686564 25.989957 0.000000
183 1 14.342247 27.249512 0.000000
184 1 15.760895 27.311452 0.000000
185 1 12.160633 28.385189 0.000000
186 1 13.579281 28.447128 0.000000
187 1 19.778299 0.406447 0.000000
188 1 21.196947 0.468387 0.000000
189 1 17.596685 1.542124 0.000000
190 1 19.015333 1.604063 0.000000
191 1 19.671016 2.863619 0.000000
192 1 21.089665 2.925558 0.000000
193 1 17.489403 3.999295 0.000000
194 1 18.908051 4.061235 0.000000
195 1 19.563734 5.320790 0.000000
196 1 20.982383 5.382729 0.000000
197 1 17.382120 6.456466 0.000000
198 1 18.800769 6.518406 0.000000
199 1 19.456452 7.777961 0.000000
200 1 20.875100 7.839901 0.000000
201 1 17.274838 8.913637 0.000000
202 1 18.693486 8.975577 0.000000
203 1 19.349169 10.235132 0.000000
204 1 20.767818 10.297072 0.000000
205 1 17.167555 11.370809 0.000000
206 1 18.586204 11.432748 0.000000
207 1 19.241887 12.692304 0.000000
208 1 20.660535 12.754243 0.000000
209 1 17.060273 13.827980 0.000000
210 1 18.478921 13.889919 0.000000
211 1 19.134604 15.149475 0.000000
212 1 20.553253 15.211414 0.000000
213 1 16.952990 16.285151 0.000000
214 1 18.371639 16.347091 0.000000
215 1 19.027322 17.606646 0.000000
216 1 20.445970 17.668586 0.000000
217 1 16.845708 18.742322 0.000000
218 1 18.264357 18.804262 0.000000
219 1 18.920040 20.063817 0.000000
220 1 20.338688 20.125757 0.000000
221 1 16.738426 21.199494 0.000000
222 1 18.157074 21.261433 0.000000
223 1 18.812757 22.520989 0.000000
224 1 20.231406 22.582928 0.000000
225 1 16.631143 23.656665 0.000000
226 1 18.049792 23.718604 0.000000
227 1 18.705475 24.978160 0.000000
228 1 20.124123 25.040099 0.000000
229 1 16.523861 26.113836 0.000000
230 1 17.942509 26.175776 0.000000
231 1 18.598192 27.435331 0.000000
232 1 20.016841 27.497271 0.000000
233 1 16.416578 28.571007 0.000000
234 1 17.835227 28.632947 0.000000
235 1 24.034244 0.592266 0.000000
236 1 25.452893 0.654206 0.000000
237 1 21.852630 1.727942 0.000000
238 1 23.271279 1.789882 0.000000
239 1 23.926962 3.049437 0.000000
240 1 25.345610 3.111377 0.000000
241 1 21.745348 4.185114 0.000000
242 1 23.163996 4.247053 0.000000
243 1 23.819679 5.506608 0.000000
244 1 25.238328 5.568548 0.000000
245 1 21.638066 6.642285 0.000000
246 1 23.056714 6.704224 0.000000
247 1 23.712397 7.963780 0.000000
248 1 25.131046 8.025719 0.000000
249 1 21.530783 9.099456 0.000000
250 1 22.949432 9.161396 0.000000
251 1 23.605115 10.420951 0.000000
252 1 25.023763 10.482890 0.000000
253 1 21.423501 11.556627 0.000000
254 1 22.842149 11.618567 0.000000
255 1 23.497832 12.878122 0.000000
256 1 24.916481 12.940062 0.000000
257 1 21.316218 14.013799 0.000000
258 1 22.734867 14.075738 0.000000
259 1 23.390550 15.335293 0.000000
260 1 24.809198 15.397233 0.000000
261 1 21.208936 16.470970 0.000000
262 1 22.627584 16.532909 0.000000
263 1 23.283267 17.792465 0.000000
264 1 24.701916 17.854404 0.000000
265 1 21.101653 18.928141 0.000000
266 1 22.520302 18.990081 0.000000
267 1 23.175985 20.249636 0.000000
268 1 24.594633 20.311575 0.000000
269 1 20.994371 21.385312 0.000000
270 1 22.413020 21.447252 0.000000
271 1 23.068703 22.706807 0.000000
272 1 24.487351 22.768747 0.000000
273 1 20.887089 23.842483 0.000000
274 1 22.305737 23.904423 0.000000
275 1 22.961420 25.163978 0.000000
276 1 24.380069 25.225918 0.000000
277 1 20.779806 26.299655 0.000000
278 1 22.198455 26.361594 0.000000
279 1 22.854138 27.621150 0.000000
280 1 24.272786 27.683089 0.000000
281 1 20.672524 28.756826 0.000000
282 1 22.091172 28.818765 0.000000
283 1 28.290190 0.778085 0.000000
284 1 29.708838 0.840024 0.000000
285 1 26.108576 1.913761 0.000000
286 1 27.527224 1.975700 0.000000
287 1 28.182907 3.235256 0.000000
288 1 29.601556 3.297195 0.000000
289 1 26.001293 4.370932 0.000000
290 1 27.419942 4.432872 0.000000
291 1 28.075625 5.692427 0.000000
292 1 29.494273 5.754367 0.000000
293 1 25.894011 6.828103 0.000000
294 1 27.312659 6.890043 0.000000
295 1 27.968342 8.149598 0.000000
296 1 29.386991 8.211538 0.000000
297 1 25.786729 9.285275 0.000000
298 1 27.205377 9.347214 0.000000
299 1 27.861060 10.606770 0.000000
300 1 29.279709 10.668709 0.000000
301 1 25.679446 11.742446 0.000000
302 1 27.098095 11.804385 0.000000
303 1 27.753778 13.063941 0.000000
304 1 29.172426 13.125880 0.000000
305 1 25.572164 14.199617 0.000000
306 1 26.990812 14.261557 0.000000
307 1 27.646495 15.521112 0.000000
308 1 29.065144 15.583052 0.000000
309 1 25.464881 16.656788 0.000000
310 1 26.883530 16.718728 0.000000
311 1 27.539213 17.978283 0.000000
312 1 28.957861 18.040223 0.000000
313 1 25.357599 19.113960 0.000000
314 1 26.776247 19.175899 0.000000
315 1 27.431930 20.435454 0.000000
316 1 28.850579 20.497394 0.000000
317 1 25.250316 21.571131 0.000000
318 1 26.668965 21.633070 0.000000
319 1 27.324648 22.892626 0.000000
320 1 28.743296 22.954565 0.000000
321 1 25.143034 24.028302 0.000000
322 1 26.561683 24.090242 0.000000
323 1 27.217366 25.349797 0.000000
324 1 28.636014 25.411736 0.000000
325 1 25.035752 26.485473 0.000000
326 1 26.454400 26.547413 0.000000
327 1 27.110083 27.806968 0.000000
328 1 28.528732 27.868908 0.000000
329 1 24.928469 28.942645 0.000000
330 1 26.347118 29.004584 0.000000
331 1 32.546135 0.963903 0.000000
332 1 33.964784 1.025843 0.000000
333 1 30.364521 2.099580 0.000000
334 1 31.783170 2.161519 0.000000
335 1 32.438853 3.421074 0.000000
336 1 33.857501 3.483014 0.000000
337 1 30.257239 4.556751 0.000000
338 1 31.675887 4.618690 0.000000
339 1 32.331570 5.878246 0.000000
340 1 33.750219 5.940185 0.000000
341 1 30.149956 7.013922 0.000000
342 1 31.568605 7.075862 0.000000
343 1 32.224288 8.335417 0.000000
344 1 33.642936 8.397356 0.000000
345 1 30.042674 9.471093 0.000000
346 1 31.461322 9.533033 0.000000
347 1 32.117005 10.792588 0.000000
348 1 33.535654 10.854528 0.000000
349 1 29.935392 11.928264 0.000000
350 1 31.354040 11.990204 0.000000
351 1 32.009723 13.249759 0.000000
352 1 33.428372 13.311699 0.000000
353 1 29.828109 14.385436 0.000000
354 1 31.246758 14.447375 0.000000
355 1 31.902441 15.706931 0.000000
356 1 33.321089 15.768870 0.000000
357 1 29.720827 16.842607 0.000000
358 1 31.139475 16.904546 0.000000
359 1 31.795158 18.164102 0.000000
360 1 33.213807 18.226041 0.000000
361 1 29.613544 19.299778 0.000000
362 1 31.032193 19.361718 0.000000
363 1 31.687876 20.621273 0.000000
364 1 33.106524 20.683213 0.000000
365 1 29.506262 21.756949 0.000000
366 1 30.924910 21.818889 0.000000
367 1 31.580593 23.078444 0.000000
368 1 32.999242 23.140384 0.000000
369 1 29.398979 24.214121 0.000000
370 1 30.817628 24.276060 0.000000
371 1 31.473311 25.535616 0.000000
372 1 32.891959 25.597555 0.000000
373 1 29.291697 26.671292 0.000000
374 1 30.710346 26.733231 0.000000
375 1 31.366029 27.992787 0.000000
376 1 32.784677 28.054726 0.000000
377 1 29.184415 29.128463 0.000000
378 1 30.603063 29.190403 0.000000
379 1 36.802081 1.149722 0.000000
380 1 38.220729 1.211661 0.000000
381 1 34.620467 2.285398 0.000000
382 1 36.039115 2.347338 0.000000
383 1 36.694798 3.606893 0.000000
384 1 38.113447 3.668833 0.000000
385 1 34.513184 4.742569 0.000000
386 1 35.931833 4.804509 0.000000
387 1 36.587516 6.064064 0.000000
388 1 38.006164 6.126004 0.000000
389 1 34.405902 7.199741 0.000000
390 1 35.824550 7.261680 0.000000
391 1 36.480233 8.521235 0.000000
392 1 37.898882 8.583175 0.000000
393 1 34.298619 9.656912 0.000000
394 1 35.717268 9.718851 0.000000
395 1 36.372951 10.978407 0.000000
396 1 37.791599 11.040346 0.000000
397 1 34.191337 12.114083 0.000000
398 1 35.609985 12.176023 0.000000
399 1 36.265668 13.435578 0.000000
400 1 37.684317 13.497517 0.000000
401 1 34.084055 14.571254 0.000000
402 1 35.502703 14.633194 0.000000
403 1 36.158386 15.892749 0.000000
404 1 37.577035 15.954689 0.000000
405 1 33.976772 17.028426 0.000000
406 1 35.395421 17.090365 0.000000
407 1 36.051104 18.349920 0.000000
408 1 37.469752 18.411860 0.000000
409 1 33.869490 19.485597 0.000000
410 1 35.288138 19.547536 0.000000
411 1 35.943821 20.807092 0.000000
412 1 37.362470 20.869031 0.000000
413 1 33.762207 21.942768 0.000000
414 1 35.180856 22.004708 0.000000
415 1 35.836539 23.264263 0.000000
416 1 37.255187 23.326202 0.000000
417 1 33.654925 24.399939 0.000000
418 1 35.073573 24.461879 0.000000
419 1 35.729256 25.721434 0.000000
420 1 37.147905 25.783374 0.000000
421 1 33.547643 26.857110 0.000000
422 1 34.966291 26.919050 0.000000
423 1 35.621974 28.178605 0.000000
424 1 37.040622 28.240545 0.000000
425 1 33.440360 29.314282 0.000000
426 1 34.859009 29.376221 0.000000
427 1 38.232718 17.214244 0.000000
428 1 38.125435 19.671415 0.000000
429 1 38.018153 22.128587 0.000000
430 1 37.910870 24.585758 0.000000
431 1 37.803588 27.042929 0.000000
432 1 37.696306 29.500100 0.000000
433 1 39.877919 1.149722 0.000000
434 1 41.296568 1.087782 0.000000
435 1 39.222236 2.409277 0.000000
436 1 39.985202 3.606893 0.000000
437 1 41.403850 3.544953 0.000000
438 1 39.329519 4.866448 0.000000
439 1 40.092484 6.064064 0.000000
440 1 41.511133 6.002125 0.000000
441 1 39.436801 7.323620 0.000000
442 1 40.199767 8.521235 0.000000
443 1 41.618415 8.459296 0.000000
444 1 39.544084 9.780791 0.000000
445 1 40.307049 10.978407 0.000000
446 1 41.725698 10.916467 0.000000
447 1 39.651366 12.237962 0.000000
448 1 40.414332 13.435578 0.000000
449 1 41.832980 13.373638 0.000000
450 1 38.340000 14.757073 0.000000
451 1 39.758648 14.695133 0.000000
452 1 40.521614 15.892749 0.000000
453 1 41.940262 15.830810 0.000000
454 1 39.865931 17.152305 0.000000
455 1 40.628896 18.349920 0.000000
456 1 42.047545 18.287981 0.000000
457 1 39.973213 19.609476 0.000000
458 1 40.736179 20.807092 0.000000
459 1 42.154827 20.745152 0.000000
460 1 40.080496 22.066647 0.000000
461 1 40.843461 23.264263 0.000000
462 1 42.262110 23.202323 0.000000
463 1 38.769130 24.585758 0.000000
464 1 40.187778 24.523818 0.000000
465 1 40.950744 25.721434 0.000000
466 1 42.369392 25.659495 0.000000
467 1 38.876412 27.042929 0.000000
468 1 40.295061 26.980990 0.000000
469 1 41.058026 28.178605 0.000000
470 1 42.476674 28.116666 0.000000
471 1 38.983694 29.500100 0.000000
472 1 40.402343 29.438161 0.000000
473 1 44.133865 0.963903 0.000000
474 1 45.552513 0.901964 0.000000
475 1 42.059533 2.285398 0.000000
476 1 43.478182 2.223459 0.000000
477 1 44.241147 3.421074 0.000000
478 1 45.659796 3.359135 0.000000
479 1 42.166816 4.742569 0.000000
480 1 43.585464 4.680630 0.000000
481 1 44.348430 5.878246 0.000000
482 1 45.767078 5.816306 0.000000
483 1 42.274098 7.199741 0.000000
484 1 43.692747 7.137801 0.000000
485 1 44.455712 8.335417 0.000000
486 1 45.874361 8.273477 0.000000
487 1 42.381381 9.656912 0.000000
488 1 43.800029 9.594972 0.000000
489 1 44.562995 10.792588 0.000000
490 1 45.981643 10.730649 0.000000
491 1 42.488663 12.114083 0.000000
492 1 43.907311 12.052144 0.000000
493 1 44.670277 13.249759 0.000000
494 1 46.088925 13.187820 0.000000
495 1 42.595945 14.571254 0.000000
496 1 44.014594 14.509315 0.000000
497 1 44.777559 15.706931 0.000000
498 1 46.196208 15.644991 0.000000
499 1 42.703228 17.028426 0.000000
500 1 44.121876 16.966486 0.000000
501 1 44.884842 18.164102 0.000000
502 1 46.303490 18.102162 0.000000
503 1 42.810510 19.485597 0.000000
504 1 44.229159 19.423657 0.000000
505 1 44.992124 20.621273 0.000000
506 1 46.410773 20.559334 0.000000
507 1 42.917793 21.942768 0.000000
508 1 44.336441 21.880828 0.000000
509 1 45.099407 23.078444 0.000000
510 1 46.518055 23.016505 0.000000
511 1 43.025075 24.399939 0.000000
512 1 44.443724 24.338000 0.000000
513 1 45.206689 25.535616 0.000000
514 1 46.625337 25.473676 0.000000
515 1 43.132357 26.857110 0.000000
516 1 44.551006 26.795171 0.000000
517 1 45.313971 27.992787 0.000000
518 1 46.732620 27.930847 0.000000
519 1 43.239640 29.314282 0.000000
520 1 44.658288 29.252342 0.000000
521 1 48.389810 0.778085 0.000000
522 1 49.808459 0.716145 0.000000
523 1 46.315479 2.099580 0.000000
524 1 47.734127 2.037640 0.000000
525 1 48.497093 3.235256 0.000000
526 1 49.915741 3.173316 0.000000
527 1 46.422761 4.556751 0.000000
528 1 47.841410 4.494811 0.000000
529 1 48.604375 5.692427 0.000000
530 1 50.023024 5.630488 0.000000
531 1 46.530044 7.013922 0.000000
532 1 47.948692 6.951982 0.000000
533 1 48.711658 8.149598 0.000000
534 1 50.130306 8.087659 0.000000
535 1 46.637326 9.471093 0.000000
536 1 48.055974 9.409154 0.000000
537 1 48.818940 10.606770 0.000000
538 1 50.237588 10.544830 0.000000
539 1 46.744608 11.928264 0.000000
540 1 48.163257 11.866325 0.000000
541 1 48.926222 13.063941 0.000000
542 1 50.344871 13.002001 0.000000
543 1 46.851891 14.385436 0.000000
544 1 48.270539 14.323496 0.000000
545 1 49.033505 15.521112 0.000000
546 1 50.452153 15.459172 0.000000
547 1 46.959173 16.842607 0.000000
548 1 48.377822 16.780667 0.000000
549 1 49.140787 17.978283 0.000000
550 1 50.559436 17.916344 0.000000
551 1 47.066456 19.299778 0.000000
552 1 48.485104 19.237839 0.000000
553 1 49.248070 20.435454 0.000000
554 1 50.666718 20.373515 0.000000
555 1 47.173738 21.756949 0.000000
556 1 48.592387 21.695010 0.000000
557 1 49.355352 22.892626 0.000000
558 1 50.774000 22.830686 0.000000
559 1 47.281021 24.214121 0.000000
560 1 48.699669 24.152181 0.000000
561 1 49.462634 25.349797 0.000000
562 1 50.881283 25.287857 0.000000
563 1 47.388303 26.671292 0.000000
564 1 48.806951 26.609352 0.000000
565 1 49.569917 27.806968 0.000000
566 1 50.988565 27.745029 0.000000
567 1 47.495585 29.128463 0.000000
568 1 48.914234 29.066524 0.000000
569 1 52.645756 0.592266 0.000000
570 1 54.064404 0.530326 0.000000
571 1 50.571424 1.913761 0.000000
572 1 51.990073 1.851821 0.000000
573 1 52.753038 3.049437 0.000000
574 1 54.171687 2.987498 0.000000
575 1 50.678707 4.370932 0.000000
576 1 52.097355 4.308993 0.000000
577 1 52.860321 5.506608 0.000000
578 1 54.278969 5.444669 0.000000
579 1 50.785989 6.828103 0.000000
580 1 52.204638 6.766164 0.000000
581 1 52.967603 7.963780 0.000000
582 1 54.386251 7.901840 0.000000
583 1 50.893271 9.285275 0.000000
584 1 52.311920 9.223335 0.000000
585 1 53.074885 10.420951 0.000000
586 1 54.493534 10.359011 0.000000
587 1 51.000554 11.742446 0.000000
588 1 52.419202 11.680506 0.000000
589 1 53.182168 12.878122 0.000000
590 1 54.600816 12.816183 0.000000
591 1 51.107836 14.199617 0.000000
592 1 52.526485 14.137678 0.000000
593 1 53.289450 15.335293 0.000000
594 1 54.708099 15.273354 0.000000
595 1 51.215119 16.656788 0.000000
596 1 52.633767 16.594849 0.000000
597 1 53.396733 17.792465 0.000000
598 1 54.815381 17.730525 0.000000
599 1 51.322401 19.113960 0.000000
600 1 52.741050 19.052020 0.000000
601 1 53.504015 20.249636 0.000000
602 1 54.922663 20.187696 0.000000
603 1 51.429684 21.571131 0.000000
604 1 52.848332 21.509191 0.000000
605 1 53.611297 22.706807 0.000000
606 1 55.029946 22.644868 0.000000
607 1 51.536966 24.028302 0.000000
608 1 52.955614 23.966363 0.000000
609 1 53.718580 25.163978 0.000000
610 1 55.137228 25.102039 0.000000
611 1 51.644248 26.485473 0.000000
612 1 53.062897 26.423534 0.000000
613 1 53.825862 27.621150 0.000000
614 1 55.244511 27.559210 0.000000
615 1 51.751531 28.942645 0.000000
616 1 53.170179 28.880705 0.000000
617 1 56.901701 0.406447 0.000000
618 1 58.320350 0.344508 0.000000
619 1 54.827370 1.727942 0.000000
620 1 56.246018 1.666003 0.000000
621 1 57.008984 2.863619 0.000000
622 1 58.427632 2.801679 0.000000
623 1 54.934652 4.185114 0.000000
624 1 56.353301 4.123174 0.000000
625 1 57.116266 5.320790 0.000000
626 1 58.534914 5.258850 0.000000
627 1 55.041934 6.642285 0.000000
628 1 56.460583 6.580345 0.000000
629 1 57.223548 7.777961 0.000000
630 1 58.642197 7.716022 0.000000
631 1 55.149217 9.099456 0.000000
632 1 56.567865 9.037517 0.000000
633 1 57.330831 10.235132 0.000000
634 1 58.749479 10.173193 0.000000
635 1 55.256499 11.556627 0.000000
636 1 56.675148 11.494688 0.000000
637 1 57.438113 12.692304 0.000000
638 1 58.856762 12.630364 0.000000
639 1 55.363782 14.013799 0.000000
640 1 56.782430 13.951859 0.000000
641 1 57.545396 15.149475 0.000000
642 1 58.964044 15.087535 0.000000
643 1 55.471064 16.470970 0.000000
644 1 56.889713 16.409030 0.000000
645 1 57.652678 17.606646 0.000000
646 1 59.071327 17.544707 0.000000
647 1 55.578347 18.928141 0.000000
648 1 56.996995 18.866201 0.000000
649 1 57.759960 20.063817 0.000000
650 1 59.178609 20.001878 0.000000
651 1 55.685629 21.385312 0.000000
652 1 57.104277 21.323373 0.000000
653 1 57.867243 22.520989 0.000000
654 1 59.285891 22.459049 0.000000
655 1 55.792911 23.842483 0.000000
656 1 57.211560 23.780544 0.000000
657 1 57.974525 24.978160 0.000000
658 1 59.393174 24.916220 0.000000
659 1 55.900194 26.299655 0.000000
660 1 57.318842 26.237715 0.000000
661 1 58.081808 27.435331 0.000000
662 1 59.500456 27.373391 0.000000
663 1 56.007476 28.756826 0.000000
664 1 57.426125 28.694886 0.000000
665 1 61.157647 0.220629 0.000000
666 1 62.576295 0.158689 0.000000
667 1 59.083315 1.542124 0.000000
668 1 60.501964 1.480184 0.000000
669 1 61.264929 2.677800 0.000000
670 1 62.683577 2.615861 0.000000
671 1 59.190597 3.999295 0.000000
672 1 60.609246 3.937355 0.000000
673 1 61.372211 5.134971 0.000000
674 1 62.790860 5.073032 0.000000
675 1 59.297880 6.456466 0.000000
676 1 60.716528 6.394527 0.000000
677 1 61.479494 7.592143 0.000000
678 1 62.898142 7.530203 0.000000
679 1 59.405162 8.913637 0.000000
680 1 60.823811 8.851698 0.000000
681 1 61.586776 10.049314 0.000000
682 1 63.005425 9.987374 0.000000
683 1 59.512445 11.370809 0.000000
684 1 60.931093 11.308869 0.000000
685 1 61.694059 12.506485 0.000000
686 1 63.112707 12.444545 0.000000
687 1 59.619727 13.827980 0.000000
688 1 61.038376 13.766040 0.000000
689 1 61.801341 14.963656 0.000000
690 1 63.219990 14.901717 0.000000
691 1 59.727010 16.285151 0.000000
692 1 61.145658 16.223212 0.000000
693 1 61.908623 17.420827 0.000000
694 1 63.327272 17.358888 0.000000
695 1 59.834292 18.742322 0.000000
696 1 61.252940 18.680383 0.000000
697 1 62.015906 19.877999 0.000000
698 1 63.434554 19.816059 0.000000
699 1 59.941574 21.199494 0.000000
700 1 61.360223 21.137554 0.000000
701 1 62.123188 22.335170 0.000000
702 1 63.541837 22.273230 0.000000
703 1 60.048857 23.656665 0.000000
704 1 61.467505 23.594725 0.000000
705 1 62.230471 24.792341 0.000000
706 1 63.649119 24.730402 0.000000
707 1 60.156139 26.113836 0.000000
708 1 61.574788 26.051897 0.000000
709 1 62.337753 27.249512 0.000000
710 1 63.756402 27.187573 0.000000
711 1 60.263422 28.571007 0.000000
712 1 61.682070 28.509068 0.000000
713 1 65.413592 0.034810 0.000000
714 1 63.339260 1.356305 0.000000
715 1 64.757909 1.294366 0.000000
716 1 65.520874 2.491981 0.000000
717 1 66.939523 2.430042 0.000000
718 1 63.446543 3.813476 0.000000
719 1 64.865191 3.751537 0.000000
720 1 65.628157 4.949153 0.000000
721 1 67.046805 4.887213 0.000000
722 1 63.553825 6.270648 0.000000
723 1 64.972474 6.208708 0.000000
724 1 65.735439 7.406324 0.000000
725 1 67.154088 7.344384 0.000000
726 1 63.661108 8.727819 0.000000
727 1 65.079756 8.665879 0.000000
728 1 65.842722 9.863495 0.000000
729 1 67.261370 9.801556 0.000000
730 1 63.768390 11.184990 0.000000
731 1 65.187039 11.123051 0.000000
732 1 65.950004 12.320666 0.000000
733 1 67.368653 12.258727 0.000000
734 1 63.875673 13.642161 0.000000
735 1 65.294321 13.580222 0.000000
736 1 66.057286 14.777838 0.000000
737 1 67.475935 14.715898 0.000000
738 1 63.982955 16.099333 0.000000
739 1 65.401603 16.037393 0.000000
740 1 66.164569 17.235009 0.000000
741 1 67.583217 17.173069 0.000000
742 1 64.090237 18.556504 0.000000
743 1 65.508886 18.494564 0.000000
744 1 66.271851 19.692180 0.000000
745 1 67.690500 19.630241 0.000000
746 1 64.197520 21.013675 0.000000
747 1 65.616168 20.951736 0.000000
748 1 66.379134 22.149351 0.000000
749 1 67.797782 22.087412 0.000000
750 1 64.304802 23.470846 0.000000
751 1 65.723451 23.408907 0.000000
752 1 66.486416 24.606523 0.000000
753 1 67.905065 24.544583 0.000000
754 1 64.412085 25.928018 0.000000
755 1 65.830733 25.866078 0.000000
756 1 66.593699 27.063694 0.000000
757 1 68.012347 27.001754 0.000000
758 1 64.519367 28.385189 0.000000
759 1 65.938015 28.323249 0.000000
760 1 68.119629 29.458926 0.000000
761 1 67.595206 1.170487 0.000000
762 1 69.013854 1.108547 0.000000
763 1 69.776820 2.306163 0.000000
764 1 71.195468 2.244223 0.000000
765 1 67.702488 3.627658 0.000000
766 1 69.121137 3.565718 0.000000
767 1 69.884102 4.763334 0.000000
768 1 71.302751 4.701395 0.000000
769 1 67.809771 6.084829 0.000000
770 1 69.228419 6.022890 0.000000
771 1 69.991385 7.220505 0.000000
772 1 71.410033 7.158566 0.000000
773 1 67.917053 8.542000 0.000000
774 1 69.335702 8.480061 0.000000
775 1 70.098667 9.677677 0.000000
776 1 71.517316 9.615737 0.000000
777 1 68.024336 10.999172 0.000000
778 1 69.442984 10.937232 0.000000
779 1 70.205949 12.134848 0.000000
780 1 71.624598 12.072908 0.000000
781 1 68.131618 13.456343 0.000000
782 1 69.550266 13.394403 0.000000
783 1 70.313232 14.592019 0.000000
784 1 71.731880 14.530080 0.000000
785 1 68.238900 15.913514 0.000000
786 1 69.657549 15.851574 0.000000
787 1 70.420514 17.049190 0.000000
788 1 71.839163 16.987251 0.000000
789 1 68.346183 18.370685 0.000000
790 1 69.764831 18.308746 0.000000
791 1 70.527797 19.506362 0.000000
792 1 71.946445 19.444422 0.000000
793 1 68.453465 20.827856 0.000000
794 1 69.872114 20.765917 0.000000
795 1 70.635079 21.963533 0.000000
796 1 72.053728 21.901593 0.000000
797 1 68.560748 23.285028 0.000000
798 1 69.979396 23.223088 0.000000
799 1 70.742362 24.420704 0.000000
800 1 72.161010 24.358764 0.000000
801 1 68.668030 25.742199 0.000000
802 1 70.086679 25.680259 0.000000
803 1 70.849644 26.877875 0.000000
804 1 72.268292 26.815936 0.000000
805 1 68.775312 28.199370 0.000000
806 1 70.193961 28.137431 0.000000
807 1 70.956926 29.335046 0.000000
808 1 72.375575 29.273107 0.000000
809 1 71.851151 0.984668 0.000000
810 1 73.269800 0.922728 0.000000
811 1 74.032765 2.120344 0.000000
812 1 75.451414 2.058405 0.000000
813 1 71.958434 3.441839 0.000000
814 1 73.377082 3.379900 0.000000
815 1 74.140048 4.577516 0.000000
816 1 75.558696 4.515576 0.000000
817 1 72.065716 5.899010 0.000000
818 1 73.484365 5.837071 0.000000
819 1 74.247330 7.034687 0.000000
820 1 75.665979 6.972747 0.000000
821 1 72.172999 8.356182 0.000000
822 1 73.591647 8.294242 0.000000
823 1 74.354612 9.491858 0.000000
824 1 75.773261 9.429918 0.000000
825 1 72.280281 10.813353 0.000000
826 1 73.698929 10.751413 0.000000
827 1 74.461895 11.949029 0.000000
828 1 75.880543 11.887090 0.000000
829 1 72.387563 13.270524 0.000000
830 1 73.806212 13.208585 0.000000
831 1 74.569177 14.406200 0.000000
832 1 75.987826 14.344261 0.000000
833 1 72.494846 15.727695 0.000000
834 1 73.913494 15.665756 0.000000
835 1 74.676460 16.863372 0.000000
836 1 76.095108 16.801432 0.000000
837 1 72.602128 18.184867 0.000000
838 1 74.020777 18.122927 0.000000
839 1 74.783742 19.320543 0.000000
840 1 76.202391 19.258603 0.000000
841 1 72.709411 20.642038 0.000000
842 1 74.128059 20.580098 0.000000
843 1 74.891025 21.777714 0.000000
844 1 76.309673 21.715775 0.000000
845 1 72.816693 23.099209 0.000000
846 1 74.235342 23.037270 0.000000
847 1 74.998307 24.234885 0.000000
848 1 76.416955 24.172946 0.000000
849 1 72.923975 25.556380 0.000000
850 1 74.342624 25.494441 0.000000
851 1 75.105589 26.692057 0.000000
852 1 76.524238 26.630117 0.000000
853 1 73.031258 28.013552 0.000000
854 1 74.449906 27.951612 0.000000
855 1 75.212872 29.149228 0.000000
856 1 76.631520 29.087288 0.000000
857 1 76.107097 0.798849 0.000000
858 1 76.214379 3.256021 0.000000
859 1 76.321662 5.713192 0.000000
860 1 76.428944 8.170363 0.000000
861 1 76.536226 10.627534 0.000000
862 1 76.643509 13.084706 0.000000
