# Route A case — graphene (AIREBO)

861 atoms
1 atom types

0.000000 76.680000 xlo xhi
0.000000 29.514146 ylo yhi
-5.000000 5.000000 zlo zhi

Masses

1 12.011

Atoms  # atomic

1 1 0.747686 1.125378 0.000000
2 1 0.426655 3.563848 0.000000
3 1 0.105624 6.002319 0.000000
4 1 3.019979 0.184163 0.000000
5 1 3.563389 1.496072 0.000000
6 1 4.971241 1.681419 0.000000
7 1 1.291096 2.437287 0.000000
8 1 2.698948 2.622634 0.000000
9 1 3.242358 3.934543 0.000000
10 1 4.650210 4.119890 0.000000
11 1 0.970066 4.875757 0.000000
12 1 2.377917 5.061105 0.000000
13 1 2.921328 6.373013 0.000000
14 1 4.329179 6.558361 0.000000
15 1 0.649035 7.314228 0.000000
16 1 2.056886 7.499575 0.000000
17 1 2.600297 8.811484 0.000000
18 1 4.008149 8.996831 0.000000
19 1 0.328004 9.752699 0.000000
20 1 1.735856 9.938046 0.000000
21 1 2.279266 11.249955 0.000000
22 1 3.687118 11.435302 0.000000
23 1 0.006973 12.191169 0.000000
24 1 1.414825 12.376517 0.000000
25 1 1.958235 13.688425 0.000000
26 1 3.366087 13.873773 0.000000
27 1 1.093794 14.814987 0.000000
28 1 1.637205 16.126896 0.000000
29 1 3.045056 16.312243 0.000000
30 1 0.772763 17.253458 0.000000
31 1 1.316174 18.565367 0.000000
32 1 2.724026 18.750714 0.000000
33 1 0.451733 19.691929 0.000000
34 1 0.995143 21.003838 0.000000
35 1 2.402995 21.189185 0.000000
36 1 0.130702 22.130399 0.000000
37 1 0.674112 23.442308 0.000000
38 1 2.081964 23.627655 0.000000
39 1 0.353082 25.880779 0.000000
40 1 1.760933 26.066126 0.000000
41 1 0.032051 28.319250 0.000000
42 1 1.439903 28.504597 0.000000
43 1 5.835682 0.554858 0.000000
44 1 7.243534 0.740205 0.000000
45 1 7.786944 2.052114 0.000000
46 1 9.194796 2.237461 0.000000
47 1 5.514651 2.993328 0.000000
48 1 6.922503 3.178675 0.000000
49 1 7.465914 4.490584 0.000000
50 1 8.873765 4.675932 0.000000
51 1 5.193621 5.431799 0.000000
52 1 6.601472 5.617146 0.000000
53 1 7.144883 6.929055 0.000000
54 1 8.552735 7.114402 0.000000
55 1 4.872590 7.870270 0.000000
56 1 6.280442 8.055617 0.000000
57 1 6.823852 9.367526 0.000000
58 1 8.231704 9.552873 0.000000
59 1 4.551559 10.308740 0.000000
60 1 5.959411 10.494087 0.000000
61 1 6.502821 11.805996 0.000000
62 1 7.910673 11.991344 0.000000
63 1 4.230528 12.747211 0.000000
64 1 5.638380 12.932558 0.000000
65 1 6.181791 14.244467 0.000000
66 1 7.589642 14.429814 0.000000
67 1 3.909498 15.185682 0.000000
68 1 5.317349 15.371029 0.000000
69 1 5.860760 16.682938 0.000000
70 1 7.268611 16.868285 0.000000
71 1 3.588467 17.624152 0.000000
72 1 4.996319 17.809499 0.000000
73 1 5.539729 19.121408 0.000000
74 1 6.947581 19.306756 0.000000
75 1 3.267436 20.062623 0.000000
76 1 4.675288 20.247970 0.000000
77 1 5.218698 21.559879 0.000000
78 1 6.626550 21.745226 0.000000
79 1 2.946405 22.501094 0.000000
80 1 4.354257 22.686441 0.000000
81 1 4.897668 23.998350 0.000000
82 1 6.305519 24.183697 0.000000
83 1 2.625375 24.939564 0.000000
84 1 4.033226 25.124912 0.000000
85 1 4.576637 26.436820 0.000000
86 1 5.984488 26.622168 0.000000
87 1 2.304344 27.378035 0.000000
88 1 3.712196 27.563382 0.000000
89 1 4.255606 28.875291 0.000000
90 1 5.663458 29.060638 0.000000
91 1 12.331530 0.169685 0.000000
92 1 13.739382 0.355032 0.000000
93 1 10.059237 1.110899 0.000000
94 1 11.467089 1.296246 0.000000
95 1 12.010499 2.608155 0.000000
96 1 13.418351 2.793502 0.000000
97 1 9.738206 3.549370 0.000000
98 1 11.146058 3.734717 0.000000
99 1 11.689469 5.046626 0.000000
100 1 13.097320 5.231973 0.000000
101 1 9.417176 5.987840 0.000000
102 1 10.825027 6.173188 0.000000
103 1 11.368438 7.485097 0.000000
104 1 12.776290 7.670444 0.000000
105 1 9.096145 8.426311 0.000000
106 1 10.503997 8.611658 0.000000
107 1 11.047407 9.923567 0.000000
108 1 12.455259 10.108914 0.000000
109 1 8.775114 10.864782 0.000000
110 1 10.182966 11.050129 0.000000
111 1 10.726376 12.362038 0.000000
112 1 12.134228 12.547385 0.000000
113 1 8.454083 13.303253 0.000000
114 1 9.861935 13.488600 0.000000
115 1 10.405346 14.800509 0.000000
116 1 11.813197 14.985856 0.000000
117 1 8.133053 15.741723 0.000000
118 1 9.540904 15.927070 0.000000
119 1 10.084315 17.238979 0.000000
120 1 11.492167 17.424327 0.000000
121 1 7.812022 18.180194 0.000000
122 1 9.219874 18.365541 0.000000
123 1 9.763284 19.677450 0.000000
124 1 11.171136 19.862797 0.000000
125 1 7.490991 20.618665 0.000000
126 1 8.898843 20.804012 0.000000
127 1 9.442253 22.115921 0.000000
128 1 10.850105 22.301268 0.000000
129 1 7.169960 23.057135 0.000000
130 1 8.577812 23.242482 0.000000
131 1 9.121223 24.554391 0.000000
132 1 10.529074 24.739739 0.000000
133 1 6.848930 25.495606 0.000000
134 1 8.256781 25.680953 0.000000
135 1 8.800192 26.992862 0.000000
136 1 10.208044 27.178209 0.000000
137 1 6.527899 27.934077 0.000000
138 1 7.935751 28.119424 0.000000
139 1 8.479161 29.431333 0.000000
140 1 16.555085 0.725726 0.000000
141 1 17.962937 0.911073 0.000000
142 1 14.282792 1.666941 0.000000
143 1 15.690644 1.852288 0.000000
144 1 16.234055 3.164197 0.000000
145 1 17.641906 3.349544 0.000000
146 1 13.961762 4.105411 0.000000
147 1 15.369613 4.290759 0.000000
148 1 15.913024 5.602667 0.000000
149 1 17.320875 5.788015 0.000000
150 1 13.640731 6.543882 0.000000
151 1 15.048583 6.729229 0.000000
152 1 15.591993 8.041138 0.000000
153 1 16.999845 8.226485 0.000000
154 1 13.319700 8.982353 0.000000
155 1 14.727552 9.167700 0.000000
156 1 15.270962 10.479609 0.000000
157 1 16.678814 10.664956 0.000000
158 1 12.998669 11.420823 0.000000
159 1 14.406521 11.606171 0.000000
160 1 14.949932 12.918080 0.000000
161 1 16.357783 13.103427 0.000000
162 1 12.677639 13.859294 0.000000
163 1 14.085490 14.044641 0.000000
164 1 14.628901 15.356550 0.000000
165 1 16.036752 15.541897 0.000000
166 1 12.356608 16.297765 0.000000
167 1 13.764460 16.483112 0.000000
168 1 14.307870 17.795021 0.000000
169 1 15.715722 17.980368 0.000000
170 1 12.035577 18.736235 0.000000
171 1 13.443429 18.921583 0.000000
172 1 13.986839 20.233492 0.000000
173 1 15.394691 20.418839 0.000000
174 1 11.714546 21.174706 0.000000
175 1 13.122398 21.360053 0.000000
176 1 13.665808 22.671962 0.000000
177 1 15.073660 22.857309 0.000000
178 1 11.393516 23.613177 0.000000
179 1 12.801367 23.798524 0.000000
180 1 13.344778 25.110433 0.000000
181 1 14.752629 25.295780 0.000000
182 1 11.072485 26.051647 0.000000
183 1 12.480337 26.236995 0.000000
184 1 13.023747 27.548904 0.000000
185 1 14.431599 27.734251 0.000000
186 1 10.751454 28.490118 0.000000
187 1 12.159306 28.675465 0.000000
188 1 20.778640 1.281768 0.000000
189 1 22.186492 1.467115 0.000000
190 1 18.506347 2.222982 0.000000
191 1 19.914199 2.408329 0.000000
192 1 20.457610 3.720238 0.000000
193 1 21.865461 3.905586 0.000000
194 1 18.185317 4.661453 0.000000
195 1 19.593168 4.846800 0.000000
196 1 20.136579 6.158709 0.000000
197 1 21.544431 6.344056 0.000000
198 1 17.864286 7.099924 0.000000
199 1 19.272138 7.285271 0.000000
200 1 19.815548 8.597180 0.000000
201 1 21.223400 8.782527 0.000000
202 1 17.543255 9.538394 0.000000
203 1 18.951107 9.723741 0.000000
204 1 19.494517 11.035650 0.000000
205 1 20.902369 11.220998 0.000000
206 1 17.222224 11.976865 0.000000
207 1 18.630076 12.162212 0.000000
208 1 19.173487 13.474121 0.000000
209 1 20.581338 13.659468 0.000000
210 1 16.901194 14.415336 0.000000
211 1 18.309045 14.600683 0.000000
212 1 18.852456 15.912592 0.000000
213 1 20.260308 16.097939 0.000000
214 1 16.580163 16.853806 0.000000
215 1 17.988015 17.039154 0.000000
216 1 18.531425 18.351062 0.000000
217 1 19.939277 18.536410 0.000000
218 1 16.259132 19.292277 0.000000
219 1 17.666984 19.477624 0.000000
220 1 18.210394 20.789533 0.000000
221 1 19.618246 20.974880 0.000000
222 1 15.938101 21.730748 0.000000
223 1 17.345953 21.916095 0.000000
224 1 17.889364 23.228004 0.000000
225 1 19.297215 23.413351 0.000000
226 1 15.617071 24.169218 0.000000
227 1 17.024922 24.354566 0.000000
228 1 17.568333 25.666475 0.000000
229 1 18.976185 25.851822 0.000000
230 1 15.296040 26.607689 0.000000
231 1 16.703892 26.793036 0.000000
232 1 17.247302 28.104945 0.000000
233 1 18.655154 28.290292 0.000000
234 1 14.975009 29.046160 0.000000
235 1 16.382861 29.231507 0.000000
236 1 23.050933 0.340553 0.000000
237 1 24.458785 0.525900 0.000000
238 1 25.002196 1.837809 0.000000
239 1 26.410047 2.023156 0.000000
240 1 22.729903 2.779024 0.000000
241 1 24.137754 2.964371 0.000000
242 1 24.681165 4.276280 0.000000
243 1 26.089016 4.461627 0.000000
244 1 22.408872 5.217495 0.000000
245 1 23.816724 5.402842 0.000000
246 1 24.360134 6.714751 0.000000
247 1 25.767986 6.900098 0.000000
248 1 22.087841 7.655965 0.000000
249 1 23.495693 7.841312 0.000000
250 1 24.039103 9.153221 0.000000
251 1 25.446955 9.338569 0.000000
252 1 21.766810 10.094436 0.000000
253 1 23.174662 10.279783 0.000000
254 1 23.718072 11.591692 0.000000
255 1 25.125924 11.777039 0.000000
256 1 21.445780 12.532907 0.000000
257 1 22.853631 12.718254 0.000000
258 1 23.397042 14.030163 0.000000
259 1 24.804893 14.215510 0.000000
260 1 21.124749 14.971377 0.000000
261 1 22.532601 15.156724 0.000000
262 1 23.076011 16.468633 0.000000
263 1 24.483863 16.653981 0.000000
264 1 20.803718 17.409848 0.000000
265 1 22.211570 17.595195 0.000000
266 1 22.754980 18.907104 0.000000
267 1 24.162832 19.092451 0.000000
268 1 20.482687 19.848319 0.000000
269 1 21.890539 20.033666 0.000000
270 1 22.433949 21.345575 0.000000
271 1 23.841801 21.530922 0.000000
272 1 20.161657 22.286789 0.000000
273 1 21.569508 22.472136 0.000000
274 1 22.112919 23.784045 0.000000
275 1 23.520770 23.969393 0.000000
276 1 19.840626 24.725260 0.000000
277 1 21.248477 24.910607 0.000000
278 1 21.791888 26.222516 0.000000
279 1 23.199740 26.407863 0.000000
280 1 19.519595 27.163731 0.000000
281 1 20.927447 27.349078 0.000000
282 1 21.470857 28.660987 0.000000
283 1 22.878709 28.846334 0.000000
284 1 30.954633 0.140727 0.000000
285 1 27.274488 0.896595 0.000000
286 1 28.682340 1.081942 0.000000
287 1 29.225751 2.393851 0.000000
288 1 30.633602 2.579198 0.000000
289 1 26.953458 3.335065 0.000000
290 1 28.361309 3.520413 0.000000
291 1 28.904720 4.832322 0.000000
292 1 30.312572 5.017669 0.000000
293 1 26.632427 5.773536 0.000000
294 1 28.040279 5.958883 0.000000
295 1 28.583689 7.270792 0.000000
296 1 29.991541 7.456139 0.000000
297 1 26.311396 8.212007 0.000000
298 1 27.719248 8.397354 0.000000
299 1 28.262658 9.709263 0.000000
300 1 29.670510 9.894610 0.000000
301 1 25.990365 10.650477 0.000000
302 1 27.398217 10.835825 0.000000
303 1 27.941628 12.147734 0.000000
304 1 29.349479 12.333081 0.000000
305 1 25.669335 13.088948 0.000000
306 1 27.077186 13.274295 0.000000
307 1 27.620597 14.586204 0.000000
308 1 29.028449 14.771551 0.000000
309 1 25.348304 15.527419 0.000000
310 1 26.756156 15.712766 0.000000
311 1 27.299566 17.024675 0.000000
312 1 28.707418 17.210022 0.000000
313 1 25.027273 17.965890 0.000000
314 1 26.435125 18.151237 0.000000
315 1 26.978535 19.463146 0.000000
316 1 28.386387 19.648493 0.000000
317 1 24.706242 20.404360 0.000000
318 1 26.114094 20.589707 0.000000
319 1 26.657505 21.901616 0.000000
320 1 28.065356 22.086964 0.000000
321 1 24.385212 22.842831 0.000000
322 1 25.793063 23.028178 0.000000
323 1 26.336474 24.340087 0.000000
324 1 27.744326 24.525434 0.000000
325 1 24.064181 25.281302 0.000000
326 1 25.472033 25.466649 0.000000
327 1 26.015443 26.778558 0.000000
328 1 27.423295 26.963905 0.000000
329 1 23.743150 27.719772 0.000000
330 1 25.151002 27.905119 0.000000
331 1 25.694412 29.217028 0.000000
332 1 27.102264 29.402376 0.000000
333 1 33.770336 0.511422 0.000000
334 1 35.178188 0.696769 0.000000
335 1 31.498044 1.452636 0.000000
336 1 32.905895 1.637984 0.000000
337 1 33.449306 2.949892 0.000000
338 1 34.857157 3.135240 0.000000
339 1 31.177013 3.891107 0.000000
340 1 32.584865 4.076454 0.000000
341 1 33.128275 5.388363 0.000000
342 1 34.536127 5.573710 0.000000
343 1 30.855982 6.329578 0.000000
344 1 32.263834 6.514925 0.000000
345 1 32.807244 7.826834 0.000000
346 1 34.215096 8.012181 0.000000
347 1 30.534951 8.768048 0.000000
348 1 31.942803 8.953396 0.000000
349 1 32.486213 10.265304 0.000000
350 1 33.894065 10.450652 0.000000
351 1 30.213921 11.206519 0.000000
352 1 31.621772 11.391866 0.000000
353 1 32.165183 12.703775 0.000000
354 1 33.573034 12.889122 0.000000
355 1 29.892890 13.644990 0.000000
356 1 31.300741 13.830337 0.000000
357 1 31.844152 15.142246 0.000000
358 1 33.252004 15.327593 0.000000
359 1 29.571859 16.083460 0.000000
360 1 30.979711 16.268808 0.000000
361 1 31.523121 17.580717 0.000000
362 1 32.930973 17.766064 0.000000
363 1 29.250828 18.521931 0.000000
364 1 30.658680 18.707278 0.000000
365 1 31.202090 20.019187 0.000000
366 1 32.609942 20.204534 0.000000
367 1 28.929798 20.960402 0.000000
368 1 30.337649 21.145749 0.000000
369 1 30.881060 22.457658 0.000000
370 1 32.288911 22.643005 0.000000
371 1 28.608767 23.398872 0.000000
372 1 30.016618 23.584220 0.000000
373 1 30.560029 24.896129 0.000000
374 1 31.967881 25.081476 0.000000
375 1 28.287736 25.837343 0.000000
376 1 29.695588 26.022690 0.000000
377 1 30.238998 27.334599 0.000000
378 1 31.646850 27.519946 0.000000
379 1 27.966705 28.275814 0.000000
380 1 29.374557 28.461161 0.000000
381 1 37.993892 1.067463 0.000000
382 1 35.721599 2.008678 0.000000
383 1 37.129450 2.194025 0.000000
384 1 37.672861 3.505934 0.000000
385 1 35.400568 4.447149 0.000000
386 1 36.808420 4.632496 0.000000
387 1 37.351830 5.944405 0.000000
388 1 35.079537 6.885619 0.000000
389 1 36.487389 7.070966 0.000000
390 1 37.030799 8.382875 0.000000
391 1 34.758506 9.324090 0.000000
392 1 36.166358 9.509437 0.000000
393 1 36.709769 10.821346 0.000000
394 1 38.117620 11.006693 0.000000
395 1 34.437476 11.762561 0.000000
396 1 35.845327 11.947908 0.000000
397 1 36.388738 13.259817 0.000000
398 1 37.796590 13.445164 0.000000
399 1 34.116445 14.201031 0.000000
400 1 35.524297 14.386378 0.000000
401 1 36.067707 15.698287 0.000000
402 1 37.475559 15.883635 0.000000
403 1 33.795414 16.639502 0.000000
404 1 35.203266 16.824849 0.000000
405 1 35.746676 18.136758 0.000000
406 1 37.154528 18.322105 0.000000
407 1 33.474383 19.077973 0.000000
408 1 34.882235 19.263320 0.000000
409 1 35.425646 20.575229 0.000000
410 1 36.833497 20.760576 0.000000
411 1 33.153353 21.516443 0.000000
412 1 34.561204 21.701791 0.000000
413 1 35.104615 23.013699 0.000000
414 1 36.512467 23.199047 0.000000
415 1 32.832322 23.954914 0.000000
416 1 34.240174 24.140261 0.000000
417 1 34.783584 25.452170 0.000000
418 1 36.191436 25.637517 0.000000
419 1 32.511291 26.393385 0.000000
420 1 33.919143 26.578732 0.000000
421 1 34.462553 27.890641 0.000000
422 1 35.870405 28.075988 0.000000
423 1 32.190260 28.831855 0.000000
424 1 33.598112 29.017203 0.000000
425 1 38.018969 17.195544 0.000000
426 1 37.697938 19.634014 0.000000
427 1 37.376908 22.072485 0.000000
428 1 37.055877 24.510956 0.000000
429 1 36.734846 26.949426 0.000000
430 1 38.142698 27.134773 0.000000
431 1 36.413815 29.387897 0.000000
432 1 38.438651 20.945923 0.000000
433 1 38.759682 23.384394 0.000000
434 1 39.080713 25.822865 0.000000
435 1 39.401743 28.261335 0.000000
436 1 40.093960 0.882116 0.000000
437 1 39.007139 3.505934 0.000000
438 1 40.414991 3.320587 0.000000
439 1 38.463729 4.817843 0.000000
440 1 39.328170 5.944405 0.000000
441 1 40.736022 5.759058 0.000000
442 1 38.784759 7.256314 0.000000
443 1 39.649201 8.382875 0.000000
444 1 41.057052 8.197528 0.000000
445 1 39.105790 9.694784 0.000000
446 1 39.970231 10.821346 0.000000
447 1 41.378083 10.635999 0.000000
448 1 39.426821 12.133255 0.000000
449 1 40.291262 13.259817 0.000000
450 1 41.699114 13.074470 0.000000
451 1 38.340000 14.757073 0.000000
452 1 39.747852 14.571726 0.000000
453 1 40.612293 15.698287 0.000000
454 1 42.020145 15.512940 0.000000
455 1 40.068882 17.010196 0.000000
456 1 40.933324 18.136758 0.000000
457 1 42.341175 17.951411 0.000000
458 1 38.982062 19.634014 0.000000
459 1 40.389913 19.448667 0.000000
460 1 41.254354 20.575229 0.000000
461 1 42.662206 20.389882 0.000000
462 1 39.303092 22.072485 0.000000
463 1 40.710944 21.887138 0.000000
464 1 41.575385 23.013699 0.000000
465 1 42.983237 22.828352 0.000000
466 1 39.624123 24.510956 0.000000
467 1 41.031975 24.325608 0.000000
468 1 41.896416 25.452170 0.000000
469 1 43.304268 25.266823 0.000000
470 1 39.945154 26.949426 0.000000
471 1 41.353005 26.764079 0.000000
472 1 42.217447 27.890641 0.000000
473 1 43.625298 27.705294 0.000000
474 1 40.266185 29.387897 0.000000
475 1 41.674036 29.202550 0.000000
476 1 42.909664 0.511422 0.000000
477 1 44.317515 0.326075 0.000000
478 1 40.958401 2.008678 0.000000
479 1 42.366253 1.823331 0.000000
480 1 43.230694 2.949892 0.000000
481 1 44.638546 2.764545 0.000000
482 1 41.279432 4.447149 0.000000
483 1 42.687284 4.261801 0.000000
484 1 43.551725 5.388363 0.000000
485 1 44.959577 5.203016 0.000000
486 1 41.600463 6.885619 0.000000
487 1 43.008315 6.700272 0.000000
488 1 43.872756 7.826834 0.000000
489 1 45.280607 7.641487 0.000000
490 1 41.921494 9.324090 0.000000
491 1 43.329345 9.138743 0.000000
492 1 44.193787 10.265304 0.000000
493 1 45.601638 10.079957 0.000000
494 1 42.242524 11.762561 0.000000
495 1 43.650376 11.577213 0.000000
496 1 44.514817 12.703775 0.000000
497 1 45.922669 12.518428 0.000000
498 1 42.563555 14.201031 0.000000
499 1 43.971407 14.015684 0.000000
500 1 44.835848 15.142246 0.000000
501 1 46.243700 14.956899 0.000000
502 1 42.884586 16.639502 0.000000
503 1 44.292438 16.454155 0.000000
504 1 45.156879 17.580717 0.000000
505 1 46.564731 17.395369 0.000000
506 1 43.205617 19.077973 0.000000
507 1 44.613468 18.892625 0.000000
508 1 45.477910 20.019187 0.000000
509 1 46.885761 19.833840 0.000000
510 1 43.526647 21.516443 0.000000
511 1 44.934499 21.331096 0.000000
512 1 45.798940 22.457658 0.000000
513 1 47.206792 22.272311 0.000000
514 1 43.847678 23.954914 0.000000
515 1 45.255530 23.769567 0.000000
516 1 46.119971 24.896129 0.000000
517 1 47.527823 24.710781 0.000000
518 1 44.168709 26.393385 0.000000
519 1 45.576561 26.208038 0.000000
520 1 46.441002 27.334599 0.000000
521 1 47.848854 27.149252 0.000000
522 1 44.489740 28.831855 0.000000
523 1 45.897591 28.646508 0.000000
524 1 45.181956 1.452636 0.000000
525 1 46.589808 1.267289 0.000000
526 1 47.454249 2.393851 0.000000
527 1 48.862101 2.208504 0.000000
528 1 45.502987 3.891107 0.000000
529 1 46.910839 3.705760 0.000000
530 1 47.775280 4.832322 0.000000
531 1 49.183132 4.646974 0.000000
532 1 45.824018 6.329578 0.000000
533 1 47.231870 6.144230 0.000000
534 1 48.096311 7.270792 0.000000
535 1 49.504163 7.085445 0.000000
536 1 46.145049 8.768048 0.000000
537 1 47.552900 8.582701 0.000000
538 1 48.417342 9.709263 0.000000
539 1 49.825193 9.523916 0.000000
540 1 46.466079 11.206519 0.000000
541 1 47.873931 11.021172 0.000000
542 1 48.738372 12.147734 0.000000
543 1 50.146224 11.962386 0.000000
544 1 46.787110 13.644990 0.000000
545 1 48.194962 13.459643 0.000000
546 1 49.059403 14.586204 0.000000
547 1 50.467255 14.400857 0.000000
548 1 47.108141 16.083460 0.000000
549 1 48.515993 15.898113 0.000000
550 1 49.380434 17.024675 0.000000
551 1 50.788286 16.839328 0.000000
552 1 47.429172 18.521931 0.000000
553 1 48.837023 18.336584 0.000000
554 1 49.701465 19.463146 0.000000
555 1 51.109316 19.277798 0.000000
556 1 47.750202 20.960402 0.000000
557 1 49.158054 20.775055 0.000000
558 1 50.022495 21.901616 0.000000
559 1 51.430347 21.716269 0.000000
560 1 48.071233 23.398872 0.000000
561 1 49.479085 23.213525 0.000000
562 1 50.343526 24.340087 0.000000
563 1 51.751378 24.154740 0.000000
564 1 48.392264 25.837343 0.000000
565 1 49.800116 25.651996 0.000000
566 1 50.664557 26.778558 0.000000
567 1 52.072409 26.593210 0.000000
568 1 48.713295 28.275814 0.000000
569 1 50.121146 28.090467 0.000000
570 1 50.985588 29.217028 0.000000
571 1 52.393439 29.031681 0.000000
572 1 49.405512 0.896595 0.000000
573 1 50.813363 0.711248 0.000000
574 1 51.677804 1.837809 0.000000
575 1 53.085656 1.652462 0.000000
576 1 49.726542 3.335065 0.000000
577 1 51.134394 3.149718 0.000000
578 1 51.998835 4.276280 0.000000
579 1 53.406687 4.090933 0.000000
580 1 50.047573 5.773536 0.000000
581 1 51.455425 5.588189 0.000000
582 1 52.319866 6.714751 0.000000
583 1 53.727718 6.529403 0.000000
584 1 50.368604 8.212007 0.000000
585 1 51.776456 8.026660 0.000000
586 1 52.640897 9.153221 0.000000
587 1 54.048748 8.967874 0.000000
588 1 50.689635 10.650477 0.000000
589 1 52.097486 10.465130 0.000000
590 1 52.961928 11.591692 0.000000
591 1 54.369779 11.406345 0.000000
592 1 51.010665 13.088948 0.000000
593 1 52.418517 12.903601 0.000000
594 1 53.282958 14.030163 0.000000
595 1 54.690810 13.844816 0.000000
596 1 51.331696 15.527419 0.000000
597 1 52.739548 15.342072 0.000000
598 1 53.603989 16.468633 0.000000
599 1 55.011841 16.283286 0.000000
600 1 51.652727 17.965890 0.000000
601 1 53.060579 17.780542 0.000000
602 1 53.925020 18.907104 0.000000
603 1 55.332871 18.721757 0.000000
604 1 51.973758 20.404360 0.000000
605 1 53.381609 20.219013 0.000000
606 1 54.246051 21.345575 0.000000
607 1 55.653902 21.160228 0.000000
608 1 52.294788 22.842831 0.000000
609 1 53.702640 22.657484 0.000000
610 1 54.567081 23.784045 0.000000
611 1 55.974933 23.598698 0.000000
612 1 52.615819 25.281302 0.000000
613 1 54.023671 25.095954 0.000000
614 1 54.888112 26.222516 0.000000
615 1 56.295964 26.037169 0.000000
616 1 52.936850 27.719772 0.000000
617 1 54.344702 27.534425 0.000000
618 1 55.209143 28.660987 0.000000
619 1 56.616994 28.475640 0.000000
620 1 53.629067 0.340553 0.000000
621 1 55.036918 0.155206 0.000000
622 1 55.901360 1.281768 0.000000
623 1 57.309211 1.096421 0.000000
624 1 53.950097 2.779024 0.000000
625 1 55.357949 2.593677 0.000000
626 1 56.222390 3.720238 0.000000
627 1 57.630242 3.534891 0.000000
628 1 54.271128 5.217495 0.000000
629 1 55.678980 5.032147 0.000000
630 1 56.543421 6.158709 0.000000
631 1 57.951273 5.973362 0.000000
632 1 54.592159 7.655965 0.000000
633 1 56.000011 7.470618 0.000000
634 1 56.864452 8.597180 0.000000
635 1 58.272304 8.411833 0.000000
636 1 54.913190 10.094436 0.000000
637 1 56.321041 9.909089 0.000000
638 1 57.185483 11.035650 0.000000
639 1 58.593334 10.850303 0.000000
640 1 55.234220 12.532907 0.000000
641 1 56.642072 12.347559 0.000000
642 1 57.506513 13.474121 0.000000
643 1 58.914365 13.288774 0.000000
644 1 55.555251 14.971377 0.000000
645 1 56.963103 14.786030 0.000000
646 1 57.827544 15.912592 0.000000
647 1 59.235396 15.727245 0.000000
648 1 55.876282 17.409848 0.000000
649 1 57.284134 17.224501 0.000000
650 1 58.148575 18.351062 0.000000
651 1 59.556427 18.165715 0.000000
652 1 56.197313 19.848319 0.000000
653 1 57.605164 19.662971 0.000000
654 1 58.469606 20.789533 0.000000
655 1 59.877457 20.604186 0.000000
656 1 56.518343 22.286789 0.000000
657 1 57.926195 22.101442 0.000000
658 1 58.790636 23.228004 0.000000
659 1 60.198488 23.042657 0.000000
660 1 56.839374 24.725260 0.000000
661 1 58.247226 24.539913 0.000000
662 1 59.111667 25.666475 0.000000
663 1 60.519519 25.481127 0.000000
664 1 57.160405 27.163731 0.000000
665 1 58.568257 26.978383 0.000000
666 1 59.432698 28.104945 0.000000
667 1 60.840550 27.919598 0.000000
668 1 58.889287 29.416854 0.000000
669 1 60.124915 0.725726 0.000000
670 1 61.532766 0.540379 0.000000
671 1 58.173653 2.222982 0.000000
672 1 59.581504 2.037635 0.000000
673 1 60.445945 3.164197 0.000000
674 1 61.853797 2.978850 0.000000
675 1 58.494683 4.661453 0.000000
676 1 59.902535 4.476106 0.000000
677 1 60.766976 5.602667 0.000000
678 1 62.174828 5.417320 0.000000
679 1 58.815714 7.099924 0.000000
680 1 60.223566 6.914576 0.000000
681 1 61.088007 8.041138 0.000000
682 1 62.495859 7.855791 0.000000
683 1 59.136745 9.538394 0.000000
684 1 60.544596 9.353047 0.000000
685 1 61.409038 10.479609 0.000000
686 1 62.816889 10.294262 0.000000
687 1 59.457776 11.976865 0.000000
688 1 60.865627 11.791518 0.000000
689 1 61.730068 12.918080 0.000000
690 1 63.137920 12.732732 0.000000
691 1 59.778806 14.415336 0.000000
692 1 61.186658 14.229988 0.000000
693 1 62.051099 15.356550 0.000000
694 1 63.458951 15.171203 0.000000
695 1 60.099837 16.853806 0.000000
696 1 61.507689 16.668459 0.000000
697 1 62.372130 17.795021 0.000000
698 1 63.779982 17.609674 0.000000
699 1 60.420868 19.292277 0.000000
700 1 61.828720 19.106930 0.000000
701 1 62.693161 20.233492 0.000000
702 1 64.101012 20.048144 0.000000
703 1 60.741899 21.730748 0.000000
704 1 62.149750 21.545401 0.000000
705 1 63.014192 22.671962 0.000000
706 1 64.422043 22.486615 0.000000
707 1 61.062929 24.169218 0.000000
708 1 62.470781 23.983871 0.000000
709 1 63.335222 25.110433 0.000000
710 1 64.743074 24.925086 0.000000
711 1 61.383960 26.607689 0.000000
712 1 62.791812 26.422342 0.000000
713 1 63.656253 27.548904 0.000000
714 1 65.064105 27.363556 0.000000
715 1 61.704991 29.046160 0.000000
716 1 63.112843 28.860813 0.000000
717 1 64.348470 0.169685 0.000000
718 1 62.397208 1.666941 0.000000
719 1 63.805059 1.481593 0.000000
720 1 64.669501 2.608155 0.000000
721 1 66.077352 2.422808 0.000000
722 1 62.718238 4.105411 0.000000
723 1 64.126090 3.920064 0.000000
724 1 64.990531 5.046626 0.000000
725 1 66.398383 4.861279 0.000000
726 1 63.039269 6.543882 0.000000
727 1 64.447121 6.358535 0.000000
728 1 65.311562 7.485097 0.000000
729 1 66.719414 7.299749 0.000000
730 1 63.360300 8.982353 0.000000
731 1 64.768152 8.797006 0.000000
732 1 65.632593 9.923567 0.000000
733 1 67.040445 9.738220 0.000000
734 1 63.681331 11.420823 0.000000
735 1 65.089182 11.235476 0.000000
736 1 65.953624 12.362038 0.000000
737 1 67.361475 12.176691 0.000000
738 1 64.002361 13.859294 0.000000
739 1 65.410213 13.673947 0.000000
740 1 66.274654 14.800509 0.000000
741 1 67.682506 14.615161 0.000000
742 1 64.323392 16.297765 0.000000
743 1 65.731244 16.112418 0.000000
744 1 66.595685 17.238979 0.000000
745 1 68.003537 17.053632 0.000000
746 1 64.644423 18.736235 0.000000
747 1 66.052275 18.550888 0.000000
748 1 66.916716 19.677450 0.000000
749 1 68.324568 19.492103 0.000000
750 1 64.965454 21.174706 0.000000
751 1 66.373305 20.989359 0.000000
752 1 67.237747 22.115921 0.000000
753 1 68.645598 21.930573 0.000000
754 1 65.286484 23.613177 0.000000
755 1 66.694336 23.427830 0.000000
756 1 67.558777 24.554391 0.000000
757 1 68.966629 24.369044 0.000000
758 1 65.607515 26.051647 0.000000
759 1 67.015367 25.866300 0.000000
760 1 67.879808 26.992862 0.000000
761 1 69.287660 26.807515 0.000000
762 1 65.928546 28.490118 0.000000
763 1 67.336398 28.304771 0.000000
764 1 68.200839 29.431333 0.000000
765 1 69.608691 29.245986 0.000000
766 1 66.620763 1.110899 0.000000
767 1 68.028614 0.925552 0.000000
768 1 68.893056 2.052114 0.000000
769 1 70.300907 1.866766 0.000000
770 1 66.941794 3.549370 0.000000
771 1 68.349645 3.364023 0.000000
772 1 69.214086 4.490584 0.000000
773 1 70.621938 4.305237 0.000000
774 1 67.262824 5.987840 0.000000
775 1 68.670676 5.802493 0.000000
776 1 69.535117 6.929055 0.000000
777 1 70.942969 6.743708 0.000000
778 1 67.583855 8.426311 0.000000
779 1 68.991707 8.240964 0.000000
780 1 69.856148 9.367526 0.000000
781 1 71.264000 9.182179 0.000000
782 1 67.904886 10.864782 0.000000
783 1 69.312737 10.679435 0.000000
784 1 70.177179 11.805996 0.000000
785 1 71.585030 11.620649 0.000000
786 1 68.225917 13.303253 0.000000
787 1 69.633768 13.117905 0.000000
788 1 70.498209 14.244467 0.000000
789 1 71.906061 14.059120 0.000000
790 1 68.546947 15.741723 0.000000
791 1 69.954799 15.556376 0.000000
792 1 70.819240 16.682938 0.000000
793 1 72.227092 16.497591 0.000000
794 1 68.867978 18.180194 0.000000
795 1 70.275830 17.994847 0.000000
796 1 71.140271 19.121408 0.000000
797 1 72.548123 18.936061 0.000000
798 1 69.189009 20.618665 0.000000
799 1 70.596860 20.433317 0.000000
800 1 71.461302 21.559879 0.000000
801 1 72.869153 21.374532 0.000000
802 1 69.510040 23.057135 0.000000
803 1 70.917891 22.871788 0.000000
804 1 71.782332 23.998350 0.000000
805 1 73.190184 23.813003 0.000000
806 1 69.831070 25.495606 0.000000
807 1 71.238922 25.310259 0.000000
808 1 72.103363 26.436820 0.000000
809 1 73.511215 26.251473 0.000000
810 1 70.152101 27.934077 0.000000
811 1 71.559953 27.748729 0.000000
812 1 72.424394 28.875291 0.000000
813 1 73.832246 28.689944 0.000000
814 1 70.844318 0.554858 0.000000
815 1 72.252170 0.369510 0.000000
816 1 73.116611 1.496072 0.000000
817 1 74.524462 1.310725 0.000000
818 1 71.165349 2.993328 0.000000
819 1 72.573200 2.807981 0.000000
820 1 73.437642 3.934543 0.000000
821 1 74.845493 3.749196 0.000000
822 1 71.486379 5.431799 0.000000
823 1 72.894231 5.246452 0.000000
824 1 73.758672 6.373013 0.000000
825 1 75.166524 6.187666 0.000000
826 1 71.807410 7.870270 0.000000
827 1 73.215262 7.684922 0.000000
828 1 74.079703 8.811484 0.000000
829 1 75.487555 8.626137 0.000000
830 1 72.128441 10.308740 0.000000
831 1 73.536293 10.123393 0.000000
832 1 74.400734 11.249955 0.000000
833 1 75.808586 11.064608 0.000000
834 1 72.449472 12.747211 0.000000
835 1 73.857323 12.561864 0.000000
836 1 74.721765 13.688425 0.000000
837 1 76.129616 13.503078 0.000000
838 1 72.770502 15.185682 0.000000
839 1 74.178354 15.000334 0.000000
840 1 75.042795 16.126896 0.000000
841 1 76.450647 15.941549 0.000000
842 1 73.091533 17.624152 0.000000
843 1 74.499385 17.438805 0.000000
844 1 75.363826 18.565367 0.000000
845 1 73.412564 20.062623 0.000000
846 1 74.820416 19.877276 0.000000
847 1 75.684857 21.003838 0.000000
848 1 73.733595 22.501094 0.000000
849 1 75.141446 22.315746 0.000000
850 1 76.005888 23.442308 0.000000
851 1 74.054625 24.939564 0.000000
852 1 75.462477 24.754217 0.000000
853 1 76.326918 25.880779 0.000000
854 1 74.375656 27.378035 0.000000
855 1 75.783508 27.192688 0.000000
856 1 76.647949 28.319250 0.000000
857 1 75.388904 2.437287 0.000000
858 1 75.709934 4.875757 0.000000
859 1 76.030965 7.314228 0.000000
860 1 76.351996 9.752699 0.000000
861 1 76.673027 12.191169 0.000000
